&CONTROL
  dt = 30.D0,
  prefix='amorphOptimizeIteration',
  pseudo_dir = './',
  outdir = './'
  wf_collect = .true.,
  verbosity = 'high',
  tprnfor = .true.,
  tstress = .true.,
/

&SYSTEM
  ibrav = 0, nat = 238, ntyp = 2,
  ecutwfc	= 42.D0,
  degauss	= 0.05D0,
  occupations	= "smearing",
  smearing	= "marzari-vanderbilt",
/
&ELECTRONS
  electron_maxstep = 200,
  conv_thr = 1.D-8,
  mixing_beta = 0.3D0,
  scf_must_converge=.false.,
/
&IONS
/
ATOMIC_SPECIES
Si  28.08  Si.pbe-hgh.UPF
H  1.00784  H.pbe-hgh.UPF
CELL_PARAMETERS { angstrom }
   16.500059908118217  0.0  0.0
   0.25531965792553446  16.37640900950653  0.0
   0.28697846099747115  0.07172249031575244  16.29094665235829
K_POINTS {automatic}
2 2 2  0 0 0
ATOMIC_POSITIONS (angstrom)
Si 8.3548410200 4.0822255400 14.6473693400
Si 7.7349262500 15.1810523300 14.0694480000
Si 12.3367951900 3.2820150800 12.7778040100
Si 10.9650405600 3.6809607300 2.9614660300
Si 2.0049321000 13.1367303500 10.1215325700
Si 1.5248819700 13.5018518100 15.6846464900
Si 7.2524029400 15.0218970800 5.2441697600
Si 1.7760268000 5.5731009500 6.1143181000
Si 15.7428637100 15.6484004900 10.7361737000
Si 5.5545548800 12.4548967500 2.7560860600
Si 0.5855870300 5.6186767400 8.1267387400
Si 0.5450482100 9.2617827400 13.0613642200
Si 10.2660440800 3.0844942400 11.6644807100
Si 14.8196803300 12.7026698800 5.0209512100
Si 13.5347583200 6.2315525700 2.8645023100
Si 4.7839604300 12.0473090200 15.8393941900
Si 1.8437365000 10.2178235600 4.0155717300
Si 0.2351817000 6.9653291200 4.9361079600
Si 5.3061561000 1.6898727400 3.3234019900
Si 11.6568643200 6.2969844500 5.9053541200
Si 13.7720465500 9.1091981000 5.7099279300
Si 11.0181861300 6.5317322700 12.7589716700
Si 9.2201355600 0.4212828200 13.5858186700
Si 8.0184327100 4.3783305000 5.2148786400
Si 14.8160725100 14.1729777100 1.4205119000
Si 13.0708553200 16.4214720600 12.2032874800
Si 10.8316275100 15.8105243100 11.9258852400
Si 13.9525111900 3.3030901000 11.0738524400
Si 16.4027277100 7.8144213500 8.5535289600
Si 10.5869718500 13.5655358000 12.2913889200
Si 12.4576442700 7.7458816900 4.2860177400
Si 10.0463684600 3.1523483500 15.9845791100
Si 9.8088777600 6.5435698800 0.1188049900
Si 16.3670885300 8.9883796100 15.2785457700
Si 9.6114087100 11.4334974000 9.1645372000
Si 3.1420090000 5.7718635500 13.4761154400
Si 10.8573011900 1.9505231600 9.6588696900
Si 13.0242188400 15.5803473700 2.0076473900
Si 2.0828813400 0.6589626100 13.9442032100
Si 6.5483297000 12.3128267800 0.5752822000
Si 10.2278961900 0.1240405600 4.3716103700
Si 12.5018109500 10.3169156100 11.4657963300
Si 9.8827397400 10.8528541600 15.5398362700
Si 1.6056728100 15.9381522000 5.8642357800
Si 5.8661113200 1.7718677800 13.2918648300
Si 13.5352991600 1.2535063100 2.7511662000
Si 1.7603672300 6.3244489400 11.5558852600
Si 4.7158770500 15.7201359800 8.8220689200
Si 1.4025932700 9.3855575200 9.4425096300
Si 7.1193149100 4.3751750500 9.0064498600
Si 10.8508853000 1.0749887300 15.2062628400
Si 0.3790104400 5.3897173400 0.4565000200
Si 1.8058225300 3.4499994600 5.0397020900
Si 14.9534052500 2.0545199200 14.9609537700
Si 11.1373889400 7.2852208700 7.9665335700
Si 4.1293187400 8.9670492200 4.1881906000
Si 7.5146010000 1.2689362900 7.5354914100
Si 6.6429590000 8.5279620700 0.7505206500
Si 9.1201499700 9.9992236200 5.9778488400
Si 16.4372943300 3.4469870400 1.6512340600
Si 16.1596899200 7.2443362500 12.1193891100
Si 1.4747353000 4.5962368400 10.0620869100
Si 8.2558585200 5.9903136200 10.1555806500
Si 14.0033141300 13.6043131500 14.2140301500
Si 3.2105939100 10.3235823300 0.5896964300
Si 2.8850781800 2.3376824500 15.4812703100
Si 7.3547960000 13.9897699700 3.1565175300
Si 14.3366260500 1.3119874400 6.4859797500
Si 14.4754436300 15.4832650500 7.1253016600
Si 11.0639903300 8.8503093700 12.6782989000
Si 4.1654375100 11.4238569100 12.3460776300
Si 10.0040187300 14.7626592600 7.9560096200
Si 2.5286801600 0.3584185700 9.7879591500
Si 1.4367401400 1.8186889200 6.7267925300
Si 15.3629321500 6.6843216700 15.8486963200
Si 15.0960949000 9.4541063700 2.3446582100
Si 3.9578270500 8.7784258200 6.6432199700
Si 16.3153650100 0.1437093600 14.5521161700
Si 4.5019982100 13.8800457300 7.3592722400
Si 13.1202810700 14.0969987400 5.7036233300
Si 6.0274130700 9.4164062000 7.3956499200
Si 7.8277853200 6.6031120300 1.4164228700
Si 12.6362295600 5.3128693300 13.8973015700
Si 6.7324496000 13.3946700000 6.8656076800
Si 13.0181666700 1.2429125500 10.1757488400
Si 10.9119755900 10.9676811400 7.2736307300
Si 15.7456492800 14.8857368900 13.0131267300
Si 16.5823276600 15.2812246400 0.2688103900
Si 5.2209085000 0.5061628100 1.2198660900
Si 11.3536503000 12.1324658900 10.6056506300
Si 5.9527502300 8.2833752000 14.9065745900
Si 5.8004309100 15.9295079600 12.7276767600
Si 1.8913122800 2.1918824500 1.4391568900
Si 3.6897024700 15.3010920600 1.4337238600
Si 5.1234860700 4.8016339500 12.4585340300
Si 11.6504201900 4.9026377200 16.0467127800
Si 5.1844074800 1.0041224100 7.2767911800
Si 1.0835936300 15.1314835500 9.4017985500
Si 15.5421480900 1.6413812300 10.2411081200
Si 16.0714153200 13.8147000100 3.4117803800
Si 5.9252319800 11.5049643200 13.9109533800
Si 2.8234287900 13.3714169800 12.3227652800
Si 0.8769345000 10.5163151100 6.1504025400
Si 13.0650975700 13.0807650800 9.2606700800
Si 14.9381522300 11.6012313100 8.9428825800
Si 10.2988691700 5.2821854100 10.9562481000
Si 1.3616823100 11.7156203200 0.9528867900
Si 1.5058672500 12.4517898700 3.1105119000
Si 13.8347522200 15.3348439100 9.3939300200
Si 4.9921811400 6.1041776100 15.5563389900
Si 12.7625313700 4.4179782300 1.5547802500
Si 16.0808833400 12.3195560300 6.9319444200
Si 13.7837971100 7.7935772000 1.1966172800
Si 11.2213474300 9.1485189500 2.8236772000
Si 10.0887959900 16.2718705200 9.7736231200
Si 3.7655124500 14.1406383900 15.7125854600
Si 3.7956286400 6.6644035100 1.3184800700
Si 0.8051992100 13.1532563600 13.4586189600
Si 14.0426277200 10.7549673400 4.0819736300
Si 14.1553855300 12.3185641300 0.0520777600
Si 8.8254011600 9.4193363000 12.3611793400
Si 0.4825886000 15.9609460800 3.8365179400
Si 15.0572676300 5.3871645300 4.3961119500
Si 2.5857664200 10.3152426900 7.6822728400
Si 12.5344963700 9.1780623600 7.7449441100
Si 7.4504200300 15.5950871100 1.4127134200
Si 11.5219355700 9.3161283600 14.9529549100
Si 6.3467127900 4.1720617600 15.9109929000
Si 5.1391765400 0.1121287600 5.1230465800
Si 9.0018921500 9.6338792500 3.5518988100
Si 6.1972015300 9.5846585000 9.6723585900
Si 14.3329137800 2.6626983500 0.9951813500
Si 4.5581824000 8.8157750300 1.8435649800
Si 8.2897640900 13.2841035300 8.6229121000
Si 3.5578863800 13.6721398300 3.3588999600
Si 2.9165716800 8.1529752700 10.7231246500
Si 2.8815617000 9.4621125000 12.6180712700
Si 1.6591127200 4.3897097200 14.8372403200
Si 7.5638969000 7.7110039500 13.3444357100
Si 6.4709723200 4.7299949300 1.8330736100
Si 13.5604775400 4.8496946200 6.1043317500
Si 9.1821397500 6.2584694600 14.2268837100
Si 15.8377270500 10.7003867900 0.5003471000
Si 5.0944766500 7.5244085400 10.0928116300
Si 0.5190258900 2.9859017400 11.5030537200
Si 6.5216535300 6.5259272600 11.6450130300
Si 8.3273718300 11.2299655000 13.7384485500
Si 11.6339725100 5.2941536000 9.0659606800
Si 3.3304102200 3.0475959800 3.2127864600
Si 8.3664729900 7.4374403700 3.4844542900
Si 8.2237991600 2.5021812400 12.8918406300
Si 3.6613041300 14.9322078000 5.4013774000
Si 13.9592952700 11.4071794300 12.9955976700
Si 5.0097916800 5.5711039000 8.6364824600
Si 7.1194026100 6.5448685600 5.1936189600
Si 8.4194373200 3.4104953700 7.3077765600
Si 0.3825771700 11.4224180500 10.2672713800
Si 14.9753747300 5.7849961900 13.6469423000
Si 0.5976385800 8.3958365200 3.0900667600
Si 12.4998620100 2.7448662900 6.2193621200
Si 6.2900915400 15.4674576500 10.5055753500
Si 8.4227026500 10.0594250400 1.1574929400
Si 9.0993460000 0.3424374600 2.2962252200
Si 15.9668128000 8.6140480200 6.3996703200
Si 16.7098246900 14.6381714500 7.2617057600
Si 2.4078790800 1.6271913800 11.8123862200
Si 7.8200387700 8.0872447600 6.7886655400
Si 16.2174957000 11.3279868700 12.4868477000
Si 5.2341992500 2.1197395200 15.5841313500
Si 15.2382284900 1.3375409300 4.3084015000
Si 11.4738847200 8.1648921100 0.7010352700
Si 15.8848668500 2.2546085800 7.9347988000
Si 7.0673108900 2.7014271500 10.7702706500
Si 11.7500799600 1.9032821500 4.1882883500
Si 1.5704516100 7.1658755900 1.3282041400
Si 13.7965036000 9.7311202900 14.6473367500
Si 12.2602491400 11.2380061000 2.6536485900
Si 3.7591592800 15.1562630300 13.5980857500
Si 7.2777143600 3.1398637300 3.3176349900
Si 11.6424363200 13.2322533200 14.3321069400
Si 8.4086932800 14.0165091100 16.1151999200
Si 10.6921149500 12.9935746500 2.6687828800
Si 2.1935850100 8.6967457100 15.8544633200
Si 14.8009674700 7.4198578400 10.1998431500
Si 9.1439447100 2.6535602800 1.9362604600
Si 16.2437672100 3.4303285500 3.9417411600
Si 3.2189610500 2.0040376100 8.2036320100
Si 10.4600354100 13.6932996200 0.2309551200
Si 12.8629068900 1.4451585400 14.0529452700
Si 3.6211683200 3.8807930300 9.5358730400
Si 7.0092837900 13.2562069200 10.5889198300
Si 7.0942865100 11.1743577700 6.3563038200
Si 11.7174180400 13.2221678700 7.3284334800
Si 1.5990966200 16.3227839800 1.7983738900
Si 9.4798478000 11.9445319000 4.4833825600
Si 3.6664051100 7.9794829000 14.2232182500
Si 3.5914629900 12.1992772600 8.6666858700
Si 13.8734997700 5.2194882600 9.7157088000
Si 4.8640404400 6.6481009900 4.6532482600
Si 5.2422066300 11.6261415100 10.2786424600
Si 9.0653548500 16.1018751700 6.2305865800
Si 11.0545844500 15.8966272200 0.7248591500
Si 15.0854743200 4.4939453600 7.8738869500
Si 7.6458304800 0.6392992100 9.8018716200
Si 4.4290934500 5.1391485300 2.9018574500
Si 13.8383500600 9.5515403800 9.6935368200
Si 8.9718448200 7.7074811000 8.7464300600
Si 16.1637019300 3.7291718300 13.6479686300
Si 8.3141427400 13.2449422500 12.5943679500
Si 3.8458762800 6.4392089700 6.7263689600
Si 10.8141745000 3.3905292400 7.8352285400
Si 8.4962708900 9.5889308800 10.0550655100
Si 10.1534049100 5.0918885900 4.6023064700
Si 4.5746877000 2.7023289900 11.4140399900
Si 11.8523940200 14.7112203500 3.8269877300
Si 5.7055904900 10.7623261800 4.4627093400
H 4.4604735700 11.4889706900 5.3570008600
H 13.9358539400 8.5636676900 13.6144418600
H 10.8262789400 11.8498009500 16.2168554300
H 13.7484350000 14.9502233500 15.1027338800
H 5.9226475900 4.2549865500 13.6295924400
H 9.6972710900 6.3529434400 3.7071841100
H 7.0077859200 10.1033023100 3.6694054100
H 4.9746853400 1.4776316000 10.4910112400
H 1.5009484600 5.9742859000 14.2371958800
H 13.3743003400 11.2823884800 15.9000779700
H 11.4389394200 11.6827317300 14.4543704900
H 13.1444889500 11.5540267800 1.3715087300
H 12.1863227000 10.6526853100 8.4984166900
H 4.0407603000 12.5079277400 4.2635199400
H 7.0637194100 10.9478289800 0.1308808100
H 7.9461836800 11.4585090800 1.6109090800
H 8.9247062700 13.8282874600 3.1539924400
H 8.0964383400 12.3980930100 3.9180052500
H 6.1882040100 13.0061852900 13.6384058500
H 7.0053984500 16.1928301700 15.0984819400
H 7.6324817000 0.4119643800 3.0407377700
H 13.9513215500 5.5807615500 0.1508079000
