&CONTROL
  dt = 30.D0,
  prefix='amorphOptimizeIteration',
  pseudo_dir = './',
  outdir = './'
  wf_collect = .true.,
  verbosity = 'high',
  tprnfor = .true.,
  tstress = .true.,
/

&SYSTEM
  ibrav = 0, nat = 230, ntyp = 2,
  ecutwfc	= 42.D0,
  degauss	= 0.05D0,
  occupations	= "smearing",
  smearing	= "marzari-vanderbilt",
/
&ELECTRONS
  electron_maxstep = 200,
  conv_thr = 1.D-8,
  mixing_beta = 0.3D0,
  scf_must_converge=.false.,
/
&IONS
/
ATOMIC_SPECIES
Si  28.08  Si.pbe-hgh.UPF
H  1.00784  H.pbe-hgh.UPF
CELL_PARAMETERS { angstrom }
   16.45338541973048  0.0  0.0
   -0.06687688947801841  16.380442363317172  0.0
   0.327915155598277  0.00879782473320316  16.367039573883293
K_POINTS {automatic}
2 2 2  0 0 0
ATOMIC_POSITIONS (angstrom)
Si 8.4664950100 4.1217327600 14.6650475000
Si 7.3903600000 14.9711352300 14.0188767700
Si 12.4216940100 3.5325076800 12.8593211200
Si 10.9053334100 3.7818086800 2.9685881700
Si 1.8695276300 13.3605146200 10.2453248600
Si 1.3644287400 13.6239127800 15.7926710500
Si 7.0482594700 15.2472380200 5.4752657500
Si 1.8029588200 5.8199834200 6.1174592800
Si 15.6491593600 15.9362720100 10.8212482500
Si 5.6043021500 12.9734720300 3.0129101100
Si 0.5860707200 5.7573850500 8.1125195700
Si 0.3876151800 9.4239819000 13.1380681700
Si 10.3715385600 3.2623584300 11.7262309700
Si 14.5981698800 12.8240539500 5.0321772500
Si 13.5747941200 6.3414059600 2.7049970000
Si 4.8603315600 12.1449538100 15.9725611900
Si 1.6322859500 10.5037104400 4.0482726700
Si 0.1881231200 7.1782098800 5.0072829900
Si 5.3338992200 1.7829807500 3.4478805600
Si 11.6010782200 6.3514056300 5.7969435400
Si 13.5368378400 9.2584817000 5.6561215400
Si 11.0090702600 6.7221447000 12.8982092100
Si 8.7687255300 0.4517335100 13.4483054100
Si 7.9317138700 4.4465936900 5.2866683500
Si 14.5448998400 14.1886613200 1.4092970400
Si 12.7861539100 0.2419032300 12.3358704600
Si 10.4985348500 15.9291837000 12.1398260600
Si 13.9639788600 3.5020854600 11.0849048900
Si 16.2935621800 7.9459089400 8.5973112800
Si 10.4177274900 13.6297064200 12.4921920600
Si 12.4374969900 7.7899549400 4.1560005200
Si 10.1594249200 3.1845107700 15.9779950400
Si 9.7359867800 6.7097887000 0.1202817000
Si 16.6685884000 9.0860622500 15.4096168600
Si 9.4545350600 11.5627861100 9.1948555300
Si 2.8725572100 6.0145169500 13.3689907300
Si 10.9362828700 2.0821149100 9.7456718800
Si 12.7324883600 15.5029394000 2.2195997000
Si 2.2631003500 0.8235133900 14.0386154200
Si 6.4503244500 12.4774315500 0.8650242300
Si 10.2195826700 0.3403998000 4.4603128900
Si 12.3378761300 10.4268830300 11.4169921300
Si 9.2959395800 10.8373032800 15.2720191600
Si 1.4505164400 16.0996788700 5.9067827500
Si 5.9586878600 1.8092598300 13.5435943100
Si 13.5280409400 1.2805072700 2.8015952600
Si 1.5468784500 6.5507046500 11.5225431600
Si 4.5531400700 15.8780330400 8.8893483700
Si 1.2931035100 9.5835319500 9.4897241100
Si 7.1674965500 4.4552309100 9.1351158300
Si 11.1701649900 1.0540289700 15.4071945400
Si 0.5204173100 5.6198138200 0.2959357200
Si 2.0164391600 3.6631574300 5.1178587100
Si 15.1101781400 2.2419022500 15.0713101500
Si 10.9585311700 7.3940158400 7.7989925600
Si 3.8412380200 9.7645507700 4.3674954100
Si 7.6184630400 1.4133517000 7.6816408900
Si 5.8533566300 8.1176442100 0.6792796100
Si 9.3541541100 11.3851968500 5.3691746000
Si 16.4373417000 3.6452912800 1.4701971500
Si 15.8974365200 7.4766659800 12.1158319800
Si 1.5722075300 4.7870673400 10.0519810200
Si 8.2228529400 6.1036372500 10.3415630600
Si 13.4864928200 14.7017804600 13.3886475500
Si 3.0529332400 10.6415471400 0.6569467800
Si 3.0507019400 2.4980134500 15.5644326900
Si 7.4869211800 14.2925692100 3.4330847500
Si 14.3719157500 1.4484487700 6.5882735400
Si 14.2635696000 15.6242385500 7.2513677800
Si 11.0382289400 9.0535991800 12.8249012400
Si 4.0169832000 11.5149392700 12.4563155100
Si 9.8139973100 14.9057744900 8.0714055700
Si 2.7197246600 0.5924476500 9.7968352400
Si 1.5423046900 2.0110905700 6.7616332200
Si 15.6282024000 7.0238059700 15.7913944300
Si 15.0536152500 9.3881255300 2.4122233900
Si 3.9850494500 9.2288976300 6.6294202800
Si 16.4785129200 0.3431581500 14.7052285800
Si 4.3762983000 14.0162268000 7.4170185900
Si 12.9295592100 14.2318161400 5.8441951900
Si 6.1549878600 9.6465919400 7.2868678900
Si 7.7308062500 6.8090610000 1.4433339300
Si 12.6619495300 5.5281751100 14.0273058000
Si 6.5668459000 13.3965276100 6.8486404100
Si 13.0855280900 1.3474533900 10.2753256500
Si 10.7273858500 11.2644176700 7.2774895800
Si 15.7522058600 15.1522965600 13.0928460400
Si 16.2788626700 15.4183259000 0.2839386800
Si 5.3040676700 0.5727395700 1.4152317200
Si 11.1451758200 12.2911241300 10.7148624900
Si 5.8278062500 8.7340963400 14.7708931400
Si 5.5660293200 15.9871291900 12.9467702100
Si 1.9296428900 2.3405650900 1.4256346200
Si 3.4280083100 15.4227554900 1.4851713600
Si 4.9472024500 5.0968236200 12.8899274800
Si 11.6546286600 4.9942227700 16.1317142800
Si 5.2872906500 1.2189387900 7.4043505000
Si 0.9675459400 15.3479873900 9.4547641200
Si 15.6385848400 1.9134412700 10.3168160900
Si 15.8674501400 13.9231159500 3.4167831800
Si 5.6185958500 10.9963693200 14.1057857500
Si 2.6891540500 13.4904700800 12.4569047200
Si 0.8092748600 10.7537383200 6.2364149200
Si 12.9278363100 13.2863371600 9.5012792400
Si 14.7494734600 11.7830635600 9.0299576100
Si 10.3221308900 5.4832855000 11.0579974800
Si 1.1432554600 11.9160999600 0.9746604800
Si 1.4299677000 12.6786162400 3.1202451600
Si 13.7061906200 15.5193618100 9.5503312600
Si 5.1559422900 5.4218184800 15.3101379900
Si 12.6580325600 4.4957791800 1.5901446400
Si 15.8303736400 12.4953852000 6.9914428300
Si 13.7760823500 7.8698474800 0.9963026200
Si 11.3186741100 9.2209194200 2.6356825800
Si 9.9136589400 0.0141980800 9.9116009300
Si 3.6434118200 14.1847793300 15.8235229200
Si 4.0535220400 6.5855662900 0.9863089000
Si 0.6754370900 13.2799962900 13.5816640500
Si 13.8772848100 10.8661086200 3.9822480300
Si 13.7890901700 12.0394354800 0.5309009400
Si 8.7801718000 9.4540986600 12.2720390100
Si 0.3127471200 16.0605393000 3.8830965100
Si 14.9931266600 5.6472854800 4.3824548800
Si 2.5148524000 10.5621289400 7.8073724800
Si 12.1852800600 9.4223139800 7.5972851600
Si 7.2887335900 15.8069765300 1.6096525100
Si 11.4146470900 9.8426652900 15.0260880200
Si 6.6657423900 3.9091607100 16.1525658900
Si 5.2286532000 0.2734886500 5.2764062200
Si 9.4159552300 9.5576787100 3.9039808500
Si 6.1303911000 9.8156387900 9.6041297200
Si 14.2785941600 2.7831623600 1.0557035100
Si 6.3234821100 10.0935135500 1.7972318800
Si 8.0839916900 13.3769677400 8.6435481700
Si 3.4703934600 13.9369425200 3.3281229300
Si 2.8216427700 8.3168210500 10.7485949600
Si 2.7060193200 9.5694350200 12.6712802000
Si 1.8483972300 4.4928917100 14.8376542900
Si 7.5268048500 7.8444366600 13.4205960100
Si 6.6063372900 4.7744080400 1.9207539300
Si 13.5361446600 4.9283241500 6.0448387300
Si 9.1551995600 6.3819416100 14.3347606400
Si 15.6837957600 10.6826066900 0.6148949500
Si 5.0699093500 7.7673954900 10.1830646400
Si 0.7132024200 3.1756902900 11.5753105000
Si 6.4009294800 6.6489296200 11.7809132500
Si 7.8379206500 11.2142256700 13.4592713200
Si 11.5524469000 5.5162426200 9.0766200400
Si 3.3869753600 3.1418953200 3.2216717000
Si 8.1652912100 7.6450106000 3.5885225300
Si 8.2309731900 2.7054854000 12.8167340800
Si 3.4884809600 15.0280536700 5.4491766900
Si 13.7817297000 11.6615817300 12.7698752500
Si 5.2950190000 5.9681460600 8.5581940600
Si 6.8502014000 6.5713259700 5.1810027400
Si 8.4801541000 3.5508371500 7.4041377300
Si 0.2667352400 11.6056599700 10.3340014800
Si 14.9886658800 6.0009420600 13.7735184800
Si 0.6894114200 8.4890672600 3.1411458700
Si 12.5038725000 2.8434602500 6.2693945100
Si 6.0007638300 15.5783123300 10.6728319400
Si 8.3778913100 10.9821070800 1.1336662700
Si 9.2977995400 0.5359980100 2.2954773000
Si 15.7426643000 8.7567176200 6.4819368800
Si 16.5087041700 14.8152156900 7.3256905100
Si 2.6230148400 1.8056815500 11.8843693100
Si 6.9509740400 7.4647045400 7.2941348600
Si 16.0575801400 11.4887499200 12.5532738500
Si 5.3714831700 2.0185441400 15.8435561800
Si 15.1892063600 1.2311254800 4.3959740600
Si 11.4338781500 8.3457560400 0.4618680400
Si 15.9335266700 2.4449265500 7.9805030300
Si 6.8633171100 2.7721426200 10.8151760800
Si 11.7660543800 2.0528667800 4.2131705900
Si 1.8389639700 7.2336042100 1.4033754400
Si 12.8946026100 11.6517947000 14.9187693400
Si 12.3021052800 11.3265675800 2.2540523200
Si 3.5367718700 15.2764751900 13.7604575900
Si 7.3354300400 3.1431193900 3.3962098100
Si 11.6769401300 13.5844948900 14.5006242200
Si 7.9846025400 14.3225258200 16.2259229600
Si 10.2044181800 12.3831363200 1.7617317700
Si 2.4325364100 8.7648738900 16.0483569500
Si 14.6036264800 7.6217521200 10.1435546100
Si 9.1341906800 2.7983569800 1.8665135600
Si 0.2556505300 4.2789017100 3.6920276900
Si 3.3425086300 2.3057262300 8.2560094100
Si 10.0384288200 14.0545109500 0.0786207100
Si 13.0505773600 1.7182140200 14.1164243300
Si 3.8000590500 4.1961833600 9.6092362400
Si 6.8312480700 13.4235233800 10.5983455400
Si 7.0577552300 11.3073861400 5.8804972800
Si 11.6294789200 13.4132255100 7.5611140100
Si 1.3997725100 0.0935391600 1.7999815400
Si 9.6203423100 13.2472896600 3.8397074800
Si 3.6322732100 8.0882390500 14.2052482500
Si 3.4596750900 12.4301214200 8.8122268800
Si 13.8026509400 5.3800580400 9.6601050000
Si 4.5875078400 6.6777594900 4.5897434400
Si 5.1125921300 11.7677545500 10.3832662700
Si 8.8713385500 16.3153510200 6.4078433000
Si 10.8842582300 16.0317840600 0.9131105900
Si 15.0454492400 4.6440030900 7.8321358100
Si 7.6813317000 0.7271755200 9.9559883400
Si 4.4429233400 5.2100177800 2.7826422300
Si 13.5288052400 9.7107948200 9.5261735100
Si 8.7832002800 7.6916023700 8.6883611200
Si 16.2600514200 3.9332645200 13.7299166900
Si 8.1280477400 13.2973227300 12.5684788300
Si 3.6199585500 6.9235562400 7.0429008000
Si 10.8568697800 3.5266550200 7.9136273000
Si 8.4130568400 9.6351990000 9.9831248900
Si 10.0222432200 5.2038275700 4.5530649000
Si 4.6609238000 3.0929127500 11.7143648700
Si 11.4450164800 14.8093521900 4.1272927400
Si 5.8054726500 10.8786115800 3.9300208100
H 9.8252844600 12.2901652500 15.2694822700
H 6.1650147500 6.5479077000 15.0651070400
H 8.6007192300 10.3971847100 2.8833813600
H 8.0542144800 0.3813682700 12.0073348800
H 13.5622022100 13.2536819200 12.4099476800
H 2.8021092800 7.2635870000 8.3635572200
H 4.2432562900 8.2773114300 3.8006884600
H 3.5557150200 9.9957122700 1.9918687200
H 9.4237250200 6.5236386600 3.7720788800
H 0.9529012300 9.0782365600 6.3058275400
H 15.8721454600 2.6810249700 4.1235937900
H 1.1407860500 5.5263828500 3.2271055600
H 9.3192875200 0.6816773100 14.9903915100
H 10.8239708300 16.3030149800 14.3889519100
