&CONTROL
  dt = 30.D0,
  prefix='amorphOptimizeIteration',
  pseudo_dir = './',
  outdir = './'
  wf_collect = .true.,
  verbosity = 'high',
  tprnfor = .true.,
  tstress = .true.,
/

&SYSTEM
  ibrav = 0, nat = 72, ntyp = 2,
  ecutwfc	= 42.D0,
  degauss	= 0.05D0,
  occupations	= "smearing",
  smearing	= "marzari-vanderbilt",
/
&ELECTRONS
  electron_maxstep = 200,
  conv_thr = 1.D-8,
  mixing_beta = 0.3D0,
  scf_must_converge=.false.,
/
&IONS
/
ATOMIC_SPECIES
Si  28.08  Si.pbe-hgh.UPF
H  1.00784  H.pbe-hgh.UPF
CELL_PARAMETERS { angstrom }
   11.105996452100001  0.0  0.0
   0.0  11.105996452100001  0.0
   0.0  0.0  11.105996452100001
K_POINTS {automatic}
3 3 3  0 0 0
ATOMIC_POSITIONS (angstrom)
Si 10.8043909100 8.0206951100 6.3549622300
Si 10.9196489400 4.6796448800 1.5573716700
Si 10.2286671600 5.9475720700 7.2816576800
Si 4.8635823900 4.0767225400 0.4745869900
Si 1.1449282800 2.9112370600 0.6396365400
Si 3.7768939600 7.7496643700 0.5583917300
Si 1.4918240800 0.3003416800 3.3389067700
Si 4.7661494800 2.6883175000 4.6327220400
Si 10.0099789800 2.0138614400 8.6760932800
Si 2.4044149100 10.6693419900 6.9798855400
Si 4.1493779700 5.8749388500 1.9234031000
Si 1.9511458800 8.3849384700 6.6499597100
Si 9.7661135100 9.5197491900 9.7082512700
Si 4.7063548000 10.5240977700 6.6735932700
Si 5.6324061000 9.2408554100 8.4488201600
Si 9.4441951000 9.5851746200 7.3986038200
Si 0.7045688600 5.5922023900 9.0689234800
Si 0.9488463600 3.1672969200 9.3366446300
Si 7.1041949600 6.2824511800 10.0699513600
Si 9.8611475200 0.6609433900 6.6478051400
Si 10.6197315000 8.0220833600 4.0109972500
Si 10.5107150400 4.4776934400 5.4094532200
Si 8.4914671900 8.8841308000 3.5030756100
Si 5.9136765700 1.3820190900 6.2268101400
Si 5.4914043700 10.7073133900 2.9549058400
Si 2.6184163600 5.8517717400 3.7246735600
Si 7.4371860500 8.3770754300 7.1970410900
Si 3.7557592400 1.2217484600 3.0641777400
Si 2.2481868600 10.9566652200 9.3085908800
Si 7.9414205100 6.2094958900 7.8896443500
Si 6.8236797000 7.9845228800 4.8895260000
Si 4.0300995700 5.4677486000 7.1259738200
Si 6.2324741900 2.8927566800 7.9602562800
Si 7.9064255100 2.6569652700 9.5504128500
Si 0.8982718700 0.8089796600 5.6000876500
Si 8.8398956200 3.5905908600 1.9278010800
Si 4.6759243700 7.3094670900 9.5076103400
Si 7.6069078900 8.0827776300 1.5191115100
Si 1.4700785400 8.3423802900 0.8098614800
Si 3.4037546900 2.3454865000 1.0789619900
Si 4.9167245800 9.2797819300 4.7040669600
Si 8.9791092800 1.2330876800 1.6311265900
Si 8.0989035300 1.3369842800 5.2416638300
Si 5.9950391000 6.2439133700 3.3873511300
Si 5.5338514900 9.1781176300 1.1759584300
Si 1.2350756500 3.0897992700 5.9964717700
Si 1.4005994200 9.0582173000 3.0864563700
Si 11.0942796300 6.5293596900 0.0575467200
Si 3.1526370000 4.2092392900 5.3377862300
Si 2.9252195100 8.0403638300 4.5369106100
Si 0.2067014700 0.8989204600 1.4101283700
Si 8.6229844000 3.4684249000 4.3120030800
Si 7.7037632900 0.7258857100 10.8236153900
Si 3.9774571500 0.9419884100 10.4070849900
Si 8.9624836100 7.5782100000 10.8077782400
Si 5.7888007400 10.5515184700 10.4384483200
Si 7.2320138800 4.2097945900 0.1861942500
Si 0.2484711300 5.7622907300 3.6081050200
Si 6.4959750700 4.3365362200 4.5562683600
Si 6.3074729900 4.9379592500 6.8254455600
Si 0.5572689200 10.3206026000 10.8438394100
Si 7.8544716600 0.0351983500 3.3227142300
Si 2.6127189800 6.8769329600 8.3147152600
Si 4.4186428500 3.0246515000 9.4090668300
H 10.3074975200 0.7662771100 9.5618964500
H 8.7356214200 10.7161093400 10.1893741400
H 1.5452883500 1.6933757000 8.9063427900
H 2.8700116000 3.4911810900 9.4262922300
H 2.9839924400 9.5885064100 9.5321212700
H 3.7837463600 4.3701318600 8.2344744300
H 7.1421885800 6.5885768700 2.2658898200
H 1.5706655500 3.1175864800 7.6469450100
