&CONTROL
  dt = 30.D0,
  prefix='amorphOptimizeIteration',
  pseudo_dir = './',
  outdir = './'
  wf_collect = .true.,
  verbosity = 'high',
  tprnfor = .true.,
  tstress = .true.,
/

&SYSTEM
  ibrav = 0, nat = 233, ntyp = 2,
  ecutwfc	= 42.D0,
  degauss	= 0.05D0,
  occupations	= "smearing",
  smearing	= "marzari-vanderbilt",
/
&ELECTRONS
  electron_maxstep = 200,
  conv_thr = 1.D-8,
  mixing_beta = 0.3D0,
  scf_must_converge=.false.,
/
&IONS
/
ATOMIC_SPECIES
Si  28.08  Si.pbe-hgh.UPF
H  1.00784  H.pbe-hgh.UPF
CELL_PARAMETERS { angstrom }
   16.55720771676596  0.0  0.0
   0.09412350616489958  16.379521265710498  0.0
   0.3555689813859073  0.032937055364277004  16.276633490723174
K_POINTS {automatic}
2 2 2  0 0 0
ATOMIC_POSITIONS (angstrom)
Si 8.4866693700 4.2241695500 14.6535438800
Si 7.8883622800 15.1513715600 14.0209525200
Si 12.5547624900 3.4586709300 12.7910087100
Si 11.0906842100 3.7268183900 2.9717551900
Si 2.0446935200 13.3249990000 10.1646925100
Si 1.6296277800 13.5574820700 15.7216165700
Si 7.3117993300 15.2492497200 5.4461615700
Si 1.9049169700 5.7047237600 5.9648164900
Si 15.9317346700 15.9191364300 10.7383950100
Si 5.7977539600 12.9205187000 2.9261806200
Si 0.7115777800 5.7071218800 7.9836236200
Si 0.4727720900 9.3894271000 12.9902021500
Si 10.4710159700 3.2313470200 11.7100612000
Si 14.8931733900 12.7788690500 4.9418951800
Si 13.7314566000 6.2772831800 2.7174490700
Si 5.0954302500 12.0653433500 15.8282773400
Si 1.9151517200 10.3807648500 4.0054841800
Si 0.3381518300 7.0933318600 4.8646951100
Si 5.4623039800 1.8877956600 3.3948337200
Si 11.8078809400 6.3507733500 5.7666647600
Si 13.8203129800 9.1685526600 5.6098556700
Si 11.2249607000 6.7051728700 12.8309515600
Si 9.3952459200 0.5125413900 13.5442262000
Si 8.0914188100 4.5275371700 5.2167912500
Si 14.8124453700 14.1892528200 1.3442220500
Si 12.9269806600 0.1182279500 12.0782386500
Si 10.8085053700 15.8267663200 11.9010186600
Si 14.2049585500 3.6297362600 11.1143038600
Si 16.5753248100 7.9207536300 8.4555483300
Si 10.6850477800 13.5558955800 12.3959910900
Si 12.5982231400 7.8002336900 4.1172721000
Si 10.2256258000 3.2557960600 15.9163502100
Si 9.9427139400 6.7366752200 0.1331838800
Si 16.8368212600 9.0903848200 15.2559420800
Si 9.6431094000 11.5287741200 9.0327503100
Si 2.9625043500 5.7905680100 13.2493098700
Si 11.0522893500 2.1220359100 9.6906030000
Si 12.9624210900 15.5263709900 2.0689228800
Si 2.3399241500 0.7416920700 13.9033863900
Si 6.6791601600 12.4076659300 0.8248298000
Si 10.3375140100 0.3340462000 4.3720502500
Si 12.5889583600 10.3523585000 11.3530332400
Si 9.5005235700 10.7722242900 15.4049058300
Si 1.7179910400 16.0500884100 5.7997226000
Si 6.0431712600 1.8656031100 13.5459678000
Si 13.7037149800 1.2311309400 2.7643420500
Si 1.6437341800 6.4499977800 11.4232669200
Si 4.8231436300 15.9283330600 8.8805149600
Si 1.4979558000 9.5366374300 9.3757803600
Si 7.3957495800 4.4834672200 9.0571327100
Si 11.0759530800 1.1777703200 15.1619119700
Si 0.4976757900 5.5602680600 0.3450288200
Si 1.9331042600 3.5774646400 4.9036939300
Si 15.1747404600 2.1517856800 14.9056038200
Si 11.1629411500 7.3930298800 7.7391323100
Si 4.1366646600 9.3119177500 4.2071353900
Si 7.7924803700 1.4639809000 7.5951980400
Si 6.7494440000 8.8517123100 0.8771949800
Si 9.4199842400 11.3504676900 5.1317946700
Si 16.4974153000 3.6348284200 1.5782540000
Si 16.1135785200 7.4112231700 12.0188777700
Si 1.6648769200 4.7009626900 9.9191757700
Si 8.3864121700 6.0703491800 10.3932815500
Si 13.7696566700 14.6839952400 13.3314254900
Si 3.2884040100 10.5030949600 0.5773647400
Si 3.0296831600 2.4652680200 15.4291091800
Si 7.6432058300 14.2903415800 3.3892996700
Si 14.5439333400 1.4757020400 6.4919189900
Si 14.3569132600 15.6409259900 7.0533651900
Si 11.2510254300 9.0448865000 12.7810474100
Si 4.2107894500 11.4365790400 12.3459241600
Si 10.1590932700 14.8835294400 7.9319453100
Si 2.7648359400 0.5905873200 9.6504322700
Si 1.5835196600 1.9664162600 6.6401177400
Si 15.8047864100 7.0233960400 15.6729657100
Si 15.2426911200 9.3721641000 2.3628463300
Si 4.2054723500 9.0535373200 6.6629375800
Si 16.6384778700 0.3008211800 14.5721281500
Si 4.5934532000 14.0968806200 7.3624096300
Si 13.1581557200 14.1626153900 5.6482685200
Si 6.3508543300 9.6030742700 7.2962776600
Si 7.9672336400 6.9121855800 1.4949046200
Si 12.8304379800 5.4552622200 13.9694044200
Si 6.8285652700 13.5016850000 6.9512944200
Si 13.2557760500 1.6074281100 10.2478498300
Si 10.8747993400 11.1984253500 7.0463825100
Si 16.0452420000 15.0912838500 12.9972987600
Si 16.6022725900 15.3552641800 0.2445661800
Si 5.3549132100 0.7114145400 1.3482765600
Si 11.3570684400 12.1607718400 10.5676531200
Si 6.2240088800 8.6251756900 14.9655506600
Si 5.9427964300 16.0202140800 13.0046232400
Si 1.8563841300 2.3262009600 1.3506301600
Si 3.6576155000 15.5072091400 1.3981758400
Si 5.0933709600 4.9716834600 12.6793672800
Si 11.8026096200 4.9934319200 16.0691389700
Si 5.4676747600 1.1805940400 7.3281635900
Si 1.1655421400 15.3286851300 9.3854975100
Si 15.7629297500 1.8827451600 10.2479637700
Si 16.1852426200 13.8886132500 3.3467525500
Si 5.7938092100 10.8181082000 13.9988976800
Si 2.9255980800 13.4441728900 12.3565202500
Si 0.9410781900 10.6113148100 6.1302521900
Si 13.1685076200 13.0513871900 9.2783158800
Si 15.0813513800 11.6236399600 8.8929991300
Si 10.5108755800 5.4447600600 11.0216409900
Si 1.3749387000 11.7942495900 0.9851025500
Si 1.6950926600 12.6416809300 3.0997220800
Si 14.1469663000 15.2294478100 9.3804680300
Si 5.2109026600 6.4509479900 15.6081358800
Si 12.8096975000 4.4459878400 1.5764700800
Si 16.1413058100 12.3760972900 6.8686742300
Si 13.9633691000 7.8098213700 1.0118483100
Si 11.4555719900 9.2732247900 2.6184057500
Si 10.2850459600 16.3592843900 9.7253536200
Si 3.9086032900 14.1440079000 15.7336287200
Si 3.9376875200 6.8988561300 1.3913998800
Si 0.9007208200 13.2414292100 13.4988306700
Si 14.1419001700 10.8095484000 3.9652320700
Si 14.0530711600 12.0423304200 0.5058533500
Si 8.9900317300 9.5195285300 12.3016354400
Si 0.4623077200 16.0501661300 3.8388277300
Si 15.2372885200 5.5103709100 4.3087178600
Si 2.6926195100 10.5010659700 7.6528336000
Si 12.4002501900 9.3935047100 7.5018027200
Si 7.4801937300 15.8730525500 1.6362736900
Si 11.6351143000 9.8647616600 14.9818273000
Si 6.5045469000 4.4598055500 15.9811149300
Si 5.3694750000 0.3170221000 5.1826754200
Si 9.3052929200 9.8117263200 3.3429438200
Si 6.2178858100 9.6577569300 9.6313072300
Si 14.4042896800 2.7283115200 0.9911753600
Si 4.6398705700 9.0699405000 1.9070680400
Si 8.4009591400 13.4780851300 8.7011627300
Si 3.7168669300 13.9880437000 3.2043971100
Si 2.9451492900 8.2213767000 10.6620087700
Si 2.8041613200 9.5321261700 12.5615407300
Si 1.8419230900 4.4376065300 14.7969898500
Si 7.7733212700 7.8462501400 13.4046215100
Si 6.6248294000 5.0179123400 1.9329967200
Si 13.7352615300 4.9454578200 6.0086331900
Si 9.3802740400 6.3837161400 14.2593889200
Si 15.9442322900 10.6705073900 0.5922432100
Si 5.1896586900 7.5813015200 10.1782021100
Si 0.7749565500 3.1285890100 11.4788353400
Si 6.5641960800 6.6477041500 11.8226304000
Si 8.0469729700 11.2112880800 13.5727916900
Si 11.7294665600 5.5196834600 9.0240585900
Si 3.5475721500 3.2592039000 2.9334888200
Si 8.5148013000 7.6688924600 3.6103689000
Si 8.3391414100 2.6357199400 12.8745729400
Si 3.7882030800 15.0799061100 5.3349433300
Si 14.0247572100 11.6330509100 12.6937395400
Si 5.5940161000 5.9593858400 8.4869296800
Si 7.1326312600 6.6910383800 5.2066020700
Si 8.6858628000 3.5942880400 7.3085176900
Si 0.4599983600 11.5505473000 10.2411764100
Si 15.1485278700 5.9542494300 13.6787363000
Si 0.7591707200 8.5019056600 3.0518036700
Si 12.6825567300 2.8540537200 6.2103495100
Si 6.3264650400 15.6825592900 10.6860168000
Si 8.2494251700 10.6699872400 1.2903268600
Si 9.3825837200 0.5566977900 2.2366861400
Si 16.0584661600 8.7195252500 6.3225443400
Si 0.5899558300 14.5396971500 7.2229188800
Si 2.6670288600 1.7205791600 11.7491902300
Si 7.2366787900 7.4713005300 7.3551990800
Si 16.3109472800 11.4877551700 12.4462696100
Si 5.3649673700 2.3784332700 15.7980353600
Si 15.4298578100 1.4327062300 4.3001889100
Si 11.6592994000 8.3481443700 0.4825777700
Si 16.0994878900 2.4173724900 7.9247673100
Si 6.9520661700 2.8201946100 10.7013982200
Si 11.9513410300 1.9854681000 4.1806533100
Si 1.7275614900 7.3093941000 1.2627054200
Si 13.1285221000 11.6724500200 14.8418808000
Si 12.5857316900 11.3301727000 2.2498376600
Si 3.8486656800 15.2170156100 13.6622969000
Si 7.4248535100 3.2983774500 3.2946347700
Si 11.9239890600 13.6138263900 14.4016304200
Si 8.2066894000 14.3479045300 16.2214394300
Si 10.4890374800 12.3509258800 1.7064259800
Si 2.5288275000 8.7961088500 15.7489613100
Si 14.8852566500 7.6011708200 10.0248762300
Si 9.2656220800 2.8237428000 1.8917191700
Si 16.4103854000 3.5467105200 3.8708927000
Si 3.5484455100 2.4516709100 7.8679618600
Si 10.2351252600 14.0374264400 0.0549521900
Si 13.0808596100 1.5304537500 13.9548368300
Si 4.0194355400 4.3648755400 9.7836728000
Si 7.1666437600 13.5458260300 10.6818988100
Si 7.2290623000 11.3780967500 6.0205965200
Si 11.8589133600 13.3109854800 7.3353090300
Si 1.4235078100 0.0686354100 1.7681958000
Si 9.7923391500 13.2652731700 3.7185922400
Si 3.8211050100 7.8458063000 14.0109098300
Si 3.5685630300 12.4531845000 8.6277062800
Si 13.9899662800 5.4291771600 9.6102778200
Si 4.8483527600 6.9793337000 4.7206306300
Si 5.2911753600 12.0107057700 10.2616035800
Si 9.1687893900 16.3139519300 6.3125342100
Si 11.0805423600 16.0981747500 0.7550095500
Si 15.2326725100 4.6350506600 7.8061432100
Si 7.9348276700 0.6583373800 9.7950501600
Si 4.5670468700 5.4114379500 2.9971141800
Si 13.7668230700 9.6414885700 9.4434097700
Si 9.0887473700 7.7318587600 8.8652800300
Si 16.3791886300 3.8713881500 13.6178291300
Si 8.4109243700 13.3060101500 12.6714731100
Si 3.8294647900 6.6979968200 6.9616626300
Si 11.0395599500 3.5452047600 7.8457768100
Si 8.5321647400 9.7316716300 10.0249250600
Si 10.2379856400 5.1792008700 4.5390647800
Si 4.7907505100 2.8628756000 11.7273795400
Si 11.6646884500 14.7802769600 3.9596166300
Si 5.5261953100 11.2077308800 4.4490712700
H 4.4490658500 11.9113955900 5.3315903400
H 8.1932606500 1.6715643300 11.0332787800
H 3.0121303200 6.9969212400 8.2963140300
H 10.0088848600 12.2342530100 15.4336503700
H 5.8543097400 4.5226279700 13.9366883800
H 5.0595285800 7.8406518400 13.0178235900
H 9.7577153900 6.4998903400 3.7177295800
H 13.4514594300 0.4524219500 9.0834194700
H 13.7534842200 13.1730491900 12.3354582900
H 3.9909785000 3.6761957100 6.9735283000
H 4.6434311600 3.2027511900 8.8460573200
H 6.3212827500 11.3878747100 9.1932704700
H 4.7574048300 10.3869271100 9.7623178500
H 10.2839004500 8.2885928000 9.8336908900
H 12.4359746500 11.5169512100 9.1880782200
H 15.8154894200 15.2533816100 6.4843340800
H 4.1445931200 3.3832333000 1.4054694000
