&CONTROL
  dt = 30.D0,
  prefix='amorphOptimizeIteration',
  pseudo_dir = './',
  outdir = './'
  wf_collect = .true.,
  verbosity = 'high',
  tprnfor = .true.,
  tstress = .true.,
/

&SYSTEM
  ibrav = 0, nat = 229, ntyp = 2,
  ecutwfc	= 42.D0,
  degauss	= 0.05D0,
  occupations	= "smearing",
  smearing	= "marzari-vanderbilt",
/
&ELECTRONS
  electron_maxstep = 200,
  conv_thr = 1.D-8,
  mixing_beta = 0.3D0,
  scf_must_converge=.false.,
/
&IONS
/
ATOMIC_SPECIES
Si  28.08  Si.pbe-hgh.UPF
H  1.00784  H.pbe-hgh.UPF
CELL_PARAMETERS { angstrom }
   16.33849120952949  0.0  0.0
   -0.03260023528041312  16.487769214601126  0.0
   0.00888075440949758  0.33172343333457466  16.268593676163253
K_POINTS {automatic}
2 2 2  0 0 0
ATOMIC_POSITIONS (angstrom)
Si 0.7970365700 16.5448047100 8.3603652200
Si 15.6477322300 11.0825697800 7.2791707500
Si 4.3565409600 14.9609536800 4.6915858500
Si 5.0094637400 16.3688386500 12.2064722500
Si 10.1967596100 8.8607085700 3.0832076000
Si 10.3893853500 10.0684027600 8.6252830000
Si 16.0941417900 12.0309081400 13.4760570300
Si 10.9587152000 2.1472792400 14.7106643400
Si 7.9577124100 11.7897915500 6.0716994600
Si 14.4319315300 8.6677745300 12.4212502300
Si 9.3126408800 0.5733113300 1.2841565600
Si 9.4550354200 5.1783248600 8.4908881400
Si 2.1737532700 15.3293553500 3.7915584400
Si 6.8990663800 9.4160899800 13.9633339500
Si 6.7212066600 3.2223209000 12.3053690300
Si 14.4862560900 9.6333664900 8.6807589000
Si 10.0423148600 7.2391773700 13.3108169300
Si 8.4180986600 4.4210426400 13.2422936100
Si 13.6462051600 14.4557946700 12.9770179200
Si 4.1668281800 2.6588750100 15.0274789300
Si 5.6466685900 5.8748489500 14.5553318100
Si 3.3200026200 2.7363280600 6.4228082500
Si 1.4721576500 13.9165547100 7.0819303200
Si 1.2551032600 16.3352369100 0.2213635000
Si 7.3100488100 10.7257185300 10.3604423900
Si 4.3694597200 12.6673209400 5.1410382900
Si 2.2246967600 11.6671668000 4.8456006300
Si 5.9536603400 15.5281520700 3.0914883200
Si 7.5740973100 4.1888369300 1.3036528400
Si 1.2498379100 10.1896462900 6.4287462800
Si 4.8018239800 4.1063705000 13.2769131800
Si 2.4922542900 15.6449100300 9.7030285200
Si 2.2872033900 2.7855511500 10.8074057300
Si 9.7142713900 3.8504226600 4.4182572100
Si 1.5334342300 7.3617324500 1.5715803100
Si 12.4633949000 2.0768058300 6.3389599100
Si 4.6521713800 14.5999657000 1.3865885100
Si 5.4822899900 12.3095113700 10.6779402700
Si 10.9455076300 13.7818272800 6.8398699100
Si 15.8079525600 8.9295670900 10.5056558600
Si 1.0477551000 13.4696107700 14.7518564200
Si 5.9281418000 4.7000084200 3.1400500700
Si 1.9223273500 6.6713087900 4.9249425600
Si 10.3078957500 12.4148851500 15.0185474800
Si 14.9924711000 13.5449951700 4.3145123900
Si 6.1776308200 14.5285079400 11.2070925400
Si 11.9677376600 7.4817916300 6.2919762200
Si 13.0269220700 11.0964550600 2.3338761800
Si 12.6935179200 5.8154845700 4.8662292000
Si 0.1745318700 1.3682969600 1.6037075300
Si 3.5628437900 14.3293779900 8.0976599700
Si 9.8220140800 1.8355969900 9.3398809700
Si 10.5877842000 16.3946754600 14.0776045500
Si 7.4247098200 15.3178347300 7.3383070900
Si 3.6108511100 3.6029755200 0.6340554200
Si 15.2304649700 5.0245411500 11.2359855700
Si 16.0660735400 15.3193535900 15.4559774200
Si 11.7700985500 5.6484667300 13.3324704300
Si 1.1964181400 6.8271056800 14.1383677500
Si 9.0383005400 16.4954124600 10.5042242200
Si 8.0687910200 2.0486712000 4.6987928400
Si 10.8734204700 0.7868330300 3.0291308000
Si 1.2003122700 0.9779752000 3.7197326000
Si 5.6648536900 11.6688187100 6.8122783800
Si 12.4588891600 6.8449586000 9.8857573600
Si 11.8328958000 15.4457374200 8.2362033100
Si 1.2389295000 10.5198146300 10.4257119900
Si 7.1086060700 14.3925201000 15.2494638900
Si 6.6445294000 12.2224558000 15.9322405000
Si 4.2279461200 4.8208404500 7.1778824800
Si 13.6199509600 7.6260742100 8.0045060000
Si 3.3554921600 10.9156145600 1.1265008700
Si 7.9391451300 12.1564046400 3.7570364900
Si 10.5526098200 14.6840297700 15.7535137300
Si 6.0280436200 4.9391863300 5.5774921200
Si 8.1036166900 6.4678702500 12.1492068000
Si 12.3611064200 5.1666470700 15.5740386100
Si 8.7663812200 13.3496458300 7.5342623000
Si 12.8384253000 9.4812536500 0.3983934600
Si 5.2209144900 10.9572985800 14.4637558900
Si 14.3241146900 6.2890242700 15.9939635500
Si 2.2474705500 6.5757529700 12.0288842800
Si 5.1587648500 1.4673438400 7.0407545100
Si 14.8165651900 8.6023652800 16.0905827200
Si 5.1983111500 12.3118530400 1.4331931500
Si 2.6295789800 7.6743115600 15.7902644800
Si 4.8160209300 9.4350568300 4.2126709900
Si 9.1140950500 11.8932793100 9.3915337600
Si 14.3492276000 13.5548728800 10.8747902500
Si 3.2511105300 7.5883340500 3.2070766800
Si 14.9900907200 3.3516493600 9.5471428600
Si 14.1222667800 11.8701235400 5.7168977000
Si 10.8459066500 15.0534287400 10.3459145400
Si 12.6141239200 11.8983058500 11.1040472700
Si 14.1730040900 0.4869843000 6.1023657600
Si 5.6061033900 1.4437327100 9.3142742100
Si 14.3664549800 13.7138390500 0.2177648900
Si 9.5429113400 11.0925634000 2.3920689400
Si 8.0443189300 14.3939163500 2.9754119000
Si 8.4076549100 10.3948907400 12.4263911000
Si 14.3876804000 4.9514428900 6.1462421500
Si 11.1637007200 9.3154487600 5.1406641100
Si 9.3347226900 7.1294040700 15.4965838300
Si 2.7391349500 9.9888271200 3.2057426500
Si 6.9953886200 7.9839583600 1.6747866400
Si 2.7227420000 2.7520885300 4.1505412300
Si 10.5515058900 8.2385539300 10.0515018000
Si 10.4749622500 9.2005614300 12.1851929300
Si 5.6985397400 11.6108085500 3.5718998900
Si 16.2855215100 16.5691165400 11.8491163200
Si 3.7467330100 0.9371058600 10.5580407300
Si 8.1078338000 9.0285994000 15.9398054000
Si 8.1747463900 3.2636718400 8.5186586300
Si 3.4608111200 4.6731550100 11.4284918300
Si 0.2136886000 11.2172505700 1.7956460300
Si 12.5500242000 10.8500667200 9.0390584100
Si 14.7580176800 1.1302746900 10.3026726100
Si 9.3273687500 9.9107752000 6.5356309400
Si 6.0477896900 7.5067793100 12.9714703300
Si 7.4454760300 8.5240095700 6.9433707100
Si 1.2081496200 4.5697037300 4.1224128300
Si 9.2437544500 12.5180945500 12.9434720800
Si 6.7879115500 1.1367490800 13.2054615200
Si 10.8625680200 5.9472459300 0.7791094600
Si 4.2416400200 5.8081562000 0.0878069700
Si 0.1939089900 12.6282174800 11.0473512200
Si 2.7689986000 6.5923740400 7.0738285600
Si 14.7325024000 16.3749235000 8.3292596600
Si 14.0510088400 12.7213089100 14.5705104100
Si 0.8981261100 3.5368932200 8.9295545000
Si 14.6305241300 5.3058272500 1.9146345200
Si 7.0075458400 16.0235910300 9.5351529000
Si 10.5861938800 3.6554385200 12.8511966200
Si 16.0790026000 8.9104183400 1.7077305500
Si 12.5637803000 10.1803921300 12.7154189400
Si 13.7784782100 3.3448131500 2.9201312200
Si 9.3556236200 5.4558727400 6.1795439600
Si 10.7552836900 0.8915400100 7.4075462200
Si 15.4439126900 3.5983470200 4.6166527100
Si 11.9548484300 15.8774007100 12.2321766300
Si 6.1259914900 1.4376192000 15.4487541700
Si 1.2412798900 2.0317130400 7.2106962400
Si 8.6734998100 6.9004293100 9.9232402000
Si 11.7642225800 2.7594235200 4.1552916600
Si 9.7331680900 15.5357922200 4.2149485900
Si 16.1049393800 1.5782554800 5.4466763600
Si 15.5668171500 6.6817598500 7.1121085600
Si 4.5394990100 2.8973871000 2.7148703800
Si 12.8957814500 1.4808153200 11.6391701200
Si 1.1284569200 1.9863412200 12.6697041900
Si 0.9398385400 13.6661001600 4.8135352300
Si 12.3170551200 11.1908435000 14.8177116900
Si 5.3428612700 9.3956602700 6.4586154200
Si 14.1053036300 1.6060388300 1.3587708400
Si 14.0794300500 2.0432222700 13.6310479300
Si 1.7407824000 12.5466421400 0.6473907900
Si 8.5233696000 7.2088377800 3.3058595800
Si 9.3882560600 5.1310988300 2.4439006800
Si 7.0898075700 8.4999401900 9.2941174200
Si 5.3186795000 15.7442525400 15.6351271800
Si 13.2780091600 10.1518520000 4.4385604100
Si 1.0046274300 5.8556768100 8.4262692900
Si 2.7665499700 13.8485840000 13.2406667500
Si 7.7883208200 5.3573456400 15.3509148400
Si 8.7607089500 10.9125233600 0.1452728500
Si 11.5099806900 14.0860885300 4.5957963700
Si 13.5209432300 6.4875463100 11.9465489300
Si 7.5616713300 6.7239254300 5.4636770400
Si 14.1650189500 14.1121509600 8.3919588200
Si 7.7478690500 14.2928436600 12.9954990500
Si 4.8339825300 5.1601287300 9.5084236000
Si 8.6123446300 14.8422866900 0.7000961500
Si 14.7709022800 12.5945102400 2.1912168800
Si 3.7060422900 15.7937057700 13.9980185900
Si 11.3096544300 2.9897971300 10.7319845300
Si 6.9418236000 2.9278475800 6.4873782900
Si 4.9869352300 7.5579087900 9.6942434800
Si 12.7053479500 12.4773351900 7.4376105800
Si 14.9191443400 16.2965819000 13.7076892700
Si 3.7846627300 8.4984365400 7.9532924600
Si 16.2861240300 12.9005070300 8.5856689700
Si 4.0246190700 8.1086649700 11.7828055400
Si 11.6720020900 4.7504606200 9.1883878300
Si 6.4485147900 3.5144603100 10.0255533900
Si 1.4102590800 14.6231322700 11.4772162700
Si 8.6767767300 16.4115222300 12.7820388300
Si 12.2698444200 14.4023214000 1.0240689300
Si 2.5478434000 10.4313197200 8.4322561300
Si 5.0986998700 15.6113755600 6.7727294300
Si 12.8444991800 16.2943752900 2.3008509400
Si 15.0099409200 8.6681549300 3.8145297000
Si 16.0707204200 8.6798032300 14.1157218700
Si 3.2551247900 9.9515245100 15.4339009400
Si 10.4914960100 12.8696223900 11.0137565800
Si 2.7917614600 10.1532797900 12.1223961600
Si 13.3233417100 3.7398804400 7.8285448900
Si 11.8447483500 7.8354729500 1.7550070800
Si 6.3576796100 1.3722197200 3.0344669000
Si 15.9548418400 5.2141348300 14.7073618200
Si 13.5859904700 6.9813693700 3.1108316800
Si 1.3396765800 10.3445222500 13.9773737500
Si 4.2700143100 12.1608459300 8.6566651100
Si 7.4287692300 1.8852580100 1.0081826500
Si 11.3412205800 12.7342576000 2.5727316700
Si 15.7523156600 3.5832450200 13.0625581900
Si 5.1141705500 6.5946538100 2.0542353200
Si 1.2425968000 3.2866113700 0.7239654300
Si 8.9200323300 0.2474795400 6.0195586100
Si 0.2298482200 8.1645923600 5.5396188300
Si 13.0186965600 2.8337927000 15.6185169400
Si 2.3394220600 14.6865258500 1.5337233000
Si 0.6167292700 5.2391180900 1.9938951100
Si 2.3935368300 1.1607792800 14.5570074700
Si 13.5242672000 15.3797275900 4.4086262000
Si 4.1709857800 11.9836584100 12.6005464000
Si 0.4613509600 6.7339388600 10.5072013700
H 14.9146176300 15.0648805100 10.9730362900
H 0.7359884700 11.2506599100 3.2335944800
H 14.6957469000 14.3010393300 6.9189027400
H 5.9791155100 8.6718419900 3.5724530200
H 4.3486504900 9.4532347400 2.1422484200
H 0.9659425500 15.4824920700 7.1496076700
H 10.4465544900 6.6343160600 6.2133338300
H 6.7144492100 9.4094510400 2.1086700400
H 1.3151603000 2.9359258200 15.5663435600
H 0.1328780600 4.2881545200 15.8728438700
H 10.2394692100 0.8632843200 0.1071184400
H 9.9410327500 2.8977418400 15.5858333400
H 14.0066103600 9.8597792600 1.6460400400
