&CONTROL
  dt = 30.D0,
  prefix='divacancyOptimizeIteration',
  pseudo_dir = './',
  outdir = './'
  wf_collect = .true.,
  verbosity = 'high',
  tprnfor = .true.,
  tstress = .true.,
/

&SYSTEM
  ibrav = 0, nat = 227, ntyp = 2,
  ecutwfc	= 42.D0,
  degauss	= 0.05D0,
  occupations	= "smearing",
  smearing	= "marzari-vanderbilt",
/
&ELECTRONS
  electron_maxstep = 200,
  conv_thr = 1.D-8,
  mixing_beta = 0.3D0,
  scf_must_converge=.false.,
/
&IONS
/
ATOMIC_SPECIES
Si  28.08  Si.pbe-hgh.UPF
H  1.00784  H.pbe-hgh.UPF
CELL_PARAMETERS { angstrom }
   16.3199774331  0.0  0.0
   0.0  16.3199774331  0.0
   0.0  0.0  16.3199774331
K_POINTS {automatic}
2 2 2  0 0 0
ATOMIC_POSITIONS (angstrom)
Si 1.3818777700 1.4175891400 1.4700725600
Si 2.7271008700 2.7467827600 0.0676425500
Si 4.0989581700 4.1037725700 1.4021276000
Si 2.7519235500 0.0124224700 2.7518582700
Si 4.0894925900 1.3725117300 4.1143968700
Si 16.2912216300 2.7548937900 2.7768441600
Si 1.3563092600 4.0830625100 4.1308800500
Si 16.2880392400 0.0400947600 5.4877066500
Si 1.3538482100 1.3771923000 6.8318689500
Si 2.7169661600 2.7199853600 5.4716804300
Si 4.0778074800 4.0850535500 6.8234478400
Si 2.7223517600 0.0223335600 8.1756395700
Si 4.0656327800 1.3803159500 9.5442492000
Si 16.3138411200 2.7283738300 8.1915189100
Si 1.3619886100 4.0894273100 9.5309973800
Si 16.3111646500 0.0040425700 10.9057433200
Si 1.3280218400 1.3828406500 12.2654912000
Si 2.7017722600 2.7318989400 10.9084524400
Si 4.0576359900 4.0770404400 12.2811583800
Si 2.7264154300 0.0274267000 13.5892208900
Si 4.0610142200 1.3702220400 15.0041955700
Si 16.2679167100 2.7477456400 13.6086090200
Si 1.3328264400 4.0507816000 15.0024656500
Si 16.3149019200 5.4336059300 0.0304290900
Si 1.3364380600 6.7492245900 1.4378912000
Si 2.8651678800 7.9923988700 0.1985602700
Si 4.1166000700 9.5096671700 1.4389993200
Si 2.7282432700 5.4258865800 2.7805651200
Si 4.0719322900 6.8108977800 4.1216755800
Si 0.0041145300 8.1544562400 2.7616829000
Si 1.3451741400 9.5469583200 4.0974893700
Si 16.3120622400 5.4432020700 5.4778167500
Si 1.3636956800 6.8038312300 6.8149288200
Si 2.7051178600 8.1831794000 5.4576452500
Si 4.0635438200 9.5408709700 6.8124481800
Si 2.7240979900 5.4509703800 8.1787730100
Si 4.0775626800 6.8117627400 9.5447877600
Si 0.0032402200 8.1485647300 8.1749215000
Si 1.3590918200 9.5191817200 9.5112828500
Si 0.0030087000 5.4534673400 10.8737561600
Si 1.3774012000 6.7847858200 12.2383837200
Si 2.7182391200 8.1744482200 10.8884278200
Si 4.1224752600 9.5056687800 12.2388243600
Si 2.6843588500 5.4203377800 13.6455574500
Si 4.0854615500 6.7439532300 14.9840730400
Si 16.2358316300 8.0817017800 13.5318398500
Si 0.9625098400 9.9015424700 14.5804800000
Si 16.2107478200 10.9485669400 0.0553815200
Si 1.3785468600 12.2563520100 1.3166011200
Si 2.7643593800 13.6207674100 16.3103160100
Si 4.0997741700 14.9648644300 1.3878443500
Si 2.7077780200 10.8838908700 2.7141591300
Si 4.0505368000 12.2577392100 4.0970813700
Si 0.2621184200 13.3570528900 3.0274537300
Si 1.3792731000 15.0522252700 4.1522918600
Si 16.2811522100 10.8808879900 5.4624106900
Si 1.3318325600 12.2672700800 6.7869563800
Si 2.7240979900 13.6462428900 5.4744385100
Si 4.0944701800 14.9767453700 6.8421179000
Si 2.6898260400 10.9073426800 8.1510780100
Si 4.0396840100 12.2702566300 9.5075782100
Si 16.3033963400 13.6187110900 8.1612453500
Si 1.3334564000 15.0007194200 9.5016540600
Si 16.2959870700 10.8625769800 10.8494067600
Si 1.3797496400 12.2309091700 12.1580567900
Si 2.6994548300 13.6577158300 10.8406918900
Si 4.0649799800 14.9965578200 12.2159763900
Si 2.7841391900 10.9342706400 13.5295060900
Si 4.1245315800 12.2483878600 14.9544033200
Si 0.1079703600 13.4234752000 13.7347624500
Si 1.4046800400 14.9726817000 14.9563780400
Si 5.4439854300 0.0171080700 0.0294120300
Si 6.7982987600 1.3707442800 1.3954266100
Si 8.1604456800 2.7175373600 0.0338017700
Si 9.5187084400 4.0793578800 1.3878737300
Si 8.1458229800 0.0252313400 2.7690595300
Si 9.5150038000 1.3740017500 4.1155066300
Si 5.4432510300 2.7295978300 2.7511728400
Si 6.7979886800 4.0827197900 4.1074772000
Si 5.4404766400 0.0073284500 5.4710929100
Si 6.7963566800 1.3687401900 6.8184539300
Si 8.1510127300 2.7259747900 5.4647444400
Si 9.4848444800 4.0905207400 6.8322932700
Si 8.1652600700 0.0148654600 8.1620123900
Si 9.5150038000 1.3617731900 9.5379333700
Si 5.4303582500 2.7196916000 8.1773205300
Si 6.7799061400 4.0641803000 9.5471052000
Si 5.4453726300 0.0269330200 10.8796476800
Si 6.7892574900 1.3687989400 12.2642182400
Si 8.1545541600 2.7138327300 10.8999986900
Si 9.5190348400 4.0416260900 12.2809135800
Si 8.1564799200 0.0161622000 13.6163120500
Si 9.5107116500 1.3642978900 14.9878103200
Si 5.4273880200 2.7184186400 13.6335133100
Si 6.8006488400 4.0595291100 14.9942893500
Si 5.4648260400 5.4271758600 0.0331018100
Si 6.8023787500 6.7824847000 1.4050864100
Si 8.1791646900 8.1183564500 0.0609505500
Si 9.4990755000 9.4961379100 1.4149502000
Si 8.1625019900 5.4306356900 2.7531312300
Si 9.5147426800 6.7954590800 4.1070202400
Si 5.4687918000 8.1451049000 2.7818054300
Si 6.8050878700 9.5296265000 4.1196682200
Si 5.4336548900 5.4402318400 5.4619537300
Si 6.7816523800 6.8087109100 6.8108325000
Si 8.1602824800 8.1590911200 5.4625575700
Si 9.5144162800 9.5424703200 6.7906120500
Si 8.0975811200 5.4391547200 8.1822491700
Si 9.6203982200 6.7119660800 9.4574595600
Si 5.4167147500 8.1609516000 8.1584220000
Si 6.7772296700 9.5722542800 9.4473575000
Si 5.4102846800 5.4133201900 10.8924262200
Si 6.7809506200 6.6928064300 12.2981148300
Si 7.8430221100 8.4883793000 11.2319143900
Si 8.1798827700 5.3947317400 13.6494742500
Si 9.5113970900 6.7764299900 14.9945178300
Si 5.4269963400 8.1040438300 13.6049043900
Si 6.7031532900 9.3770183900 15.0988351200
Si 5.4170901100 10.8745232000 0.0456753700
Si 6.7788127100 12.2266496500 1.4014486900
Si 8.0771321900 13.6269200400 0.0429563000
Si 9.4609846800 14.9713924200 1.3906269100
Si 8.1546194400 10.8819487900 2.7505363600
Si 9.5067622100 12.2502483400 4.1058452000
Si 5.4419454300 13.6035498300 2.7575865900
Si 6.7963240400 14.9712945000 4.1136135100
Si 5.4246952200 10.8955922900 5.4522759800
Si 6.7871848500 12.2566620900 6.8071115500
Si 8.1571000800 13.6132602200 5.4667844400
Si 9.5306383400 14.9708865000 6.8134437000
Si 8.1738117400 10.9138380300 8.1386421900
Si 9.5097324500 12.2642182400 9.5100751700
Si 5.4445729500 13.6080704600 8.1807477300
Si 6.7980866000 14.9928531900 9.5106953300
Si 5.4086853200 10.8863225500 10.8323360600
Si 6.6711335000 12.3951207800 12.0950453600
Si 8.1819390900 13.6574547100 10.8418832500
Si 9.5005443000 14.9924125500 12.2393466000
Si 9.7125081700 9.5008707000 12.2211661400
Si 9.7562457100 12.4873776100 15.2299171800
Si 5.4139893100 13.6664470200 13.5989802400
Si 6.7845083800 14.9938976700 14.9626612300
Si 10.8410182900 16.3172683200 0.0318249400
Si 12.1952173800 1.3721690100 1.3785011700
Si 13.5551121400 2.7496714000 0.0469243400
Si 14.9410372600 4.0900637800 1.3908407000
Si 13.5551937400 0.0748346000 2.7775459200
Si 14.9431099000 1.3951100100 4.1284973300
Si 10.8686316900 2.7309034200 2.7583862700
Si 12.2251645400 4.0925444200 4.1167143100
Si 10.8835644700 0.0123313100 5.4528798200
Si 12.2212477400 1.3747067700 6.8318036700
Si 13.5766055500 2.7358973400 5.4779962700
Si 14.9467002900 4.0842865100 6.8335499100
Si 13.5850266500 0.0136782000 8.1863291600
Si 14.9556926000 1.3597707300 9.5434005600
Si 10.8585622700 2.7404016500 8.1901969900
Si 12.2345648400 4.0751636400 9.5606507800
Si 10.8831401500 0.0139146200 10.8964246100
Si 12.2541814600 1.3596091600 12.2539203400
Si 13.6097187800 2.7225149600 10.8989868500
Si 14.9598541900 4.1134339900 12.2305338100
Si 13.6076461400 16.3089614500 13.5988823200
Si 14.8696536800 1.4195459100 14.9574551600
Si 10.8910227000 2.6976106700 13.6307062700
Si 12.2280858100 4.0908471400 14.9732202600
Si 10.8766284800 5.4370820800 0.0279525300
Si 12.2280042100 6.7988699600 1.3891777000
Si 13.5912282500 8.1533464900 0.0361046900
Si 14.9498500500 9.4951260700 1.4082231100
Si 13.5874583300 5.4473636700 2.7532781100
Si 14.9584017200 6.7958344400 4.1075261600
Si 10.8782931200 8.1541135200 2.7584189100
Si 12.2389059600 9.5103526100 4.1154087100
Si 10.8610102600 5.4473963100 5.4823700200
Si 12.2359030800 6.8168545700 6.8170177700
Si 13.6082499800 8.1559903200 5.4624922900
Si 14.9663005800 9.5035308600 6.8275604800
Si 13.5761485900 5.4412600000 8.1844360400
Si 14.9535220400 6.7960792400 9.5178598000
Si 10.8813449500 8.2148564800 8.1421836200
Si 12.2484368200 9.5418338500 9.4844691300
Si 10.8890479800 5.4061394000 10.9627816400
Si 12.2572332900 6.7856671000 12.2597302500
Si 13.5512606200 8.1378914700 10.8327930200
Si 14.9067653100 9.4842896100 12.1787831600
Si 13.6051165500 5.4353195200 13.6189722100
Si 14.9455415700 6.7837250200 15.0018291800
Si 10.9136095500 8.0925708900 13.6504208000
Si 12.2393955600 9.4817273700 14.9757498500
Si 10.8772486400 10.7936740300 0.0406806400
Si 12.1860618700 12.1902724200 1.4101243900
Si 13.4311619100 13.4861602300 16.2328287500
Si 0.2773612800 0.3363955300 16.0596411500
Si 13.5822849000 10.8561142700 2.7482352400
Si 14.8833135000 12.2254093300 4.1334096400
Si 10.8398269300 13.6036640700 2.7269213500
Si 12.2167760700 14.9649623500 4.0700065300
Si 10.8817692700 10.8930300600 5.4467761500
Si 12.2333408400 12.2496934600 6.8128072200
Si 13.5631415700 13.6347862700 5.4614314900
Si 14.9342644700 14.9766964100 6.8178174500
Si 13.6134071000 10.8943683000 8.1504415300
Si 14.9525591600 12.2578534500 9.5167174000
Si 10.8886563000 13.6150064500 8.1788219700
Si 12.2458256300 14.9652234700 9.5532251900
Si 10.9213452200 10.9254088900 10.8178928800
Si 12.2423494700 12.2478819400 12.2180979900
Si 13.6310489900 13.6218282000 10.9136421900
Si 15.0158970000 14.9325508700 12.3009871500
Si 13.5367521600 10.8167015200 13.5500203000
Si 14.8419750000 12.1688606100 14.9253864000
Si 10.8849516700 13.6282093200 13.5459729500
Si 12.2005866500 15.0028573300 14.9504538900
H 9.2351161900 10.5388212700 13.2473173600
H 7.5332526200 10.3248010800 14.2056754000
H 14.5345719000 14.1715340000 0.6992571800
H 1.9240437400 8.9049140900 15.5857906100
H 14.4724907100 15.6102216100 1.8474377700
H 0.0420587000 10.7696020700 13.6886421900
H 10.5238068900 5.8090959700 8.5681187100
H 7.5509108400 11.5724633600 13.0707188900
H 6.8744967300 9.3111183200 12.1285013100
H 1.1590203200 1.2173479200 15.1791620500
H 10.6458803200 13.3524833000 16.1180666700
H 1.1649918000 12.4703232400 3.8897687000
H 1.0089271200 12.5627759100 14.7382941800
