&CONTROL
  dt = 30.D0,
  prefix='divacancyOptimizeIteration',
  pseudo_dir = './',
  outdir = './'
  wf_collect = .true.,
  verbosity = 'high',
  tprnfor = .true.,
  tstress = .true.,
/

&SYSTEM
  ibrav = 0, nat = 224, ntyp = 2,
  ecutwfc	= 42.D0,
  degauss	= 0.05D0,
  occupations	= "smearing",
  smearing	= "marzari-vanderbilt",
/
&ELECTRONS
  electron_maxstep = 200,
  conv_thr = 1.D-8,
  mixing_beta = 0.3D0,
  scf_must_converge=.false.,
/
&IONS
/
ATOMIC_SPECIES
Si  28.08  Si.pbe-hgh.UPF
H  1.00784  H.pbe-hgh.UPF
CELL_PARAMETERS { angstrom }
   16.3199774331  0.0  0.0
   0.0  16.3199774331  0.0
   0.0  0.0  16.3199774331
K_POINTS {automatic}
2 2 2  0 0 0
ATOMIC_POSITIONS (angstrom)
Si 1.3145676500 1.3738532400 1.3792469900
Si 2.6728695800 2.7429312500 0.0292695500
Si 4.0428990500 4.0910919400 1.3876158700
Si 2.6835591700 0.0213982600 2.7384269300
Si 4.0345921800 1.4027020600 4.0847271500
Si 16.2953995500 2.7786393600 2.7117437700
Si 1.3329308900 4.1089460000 4.1005085700
Si 0.0046479300 0.0441863400 5.4734756300
Si 1.3708503600 1.3803126800 6.8454145300
Si 2.6969252300 2.7559219500 5.4672414000
Si 4.0664161400 4.1186563800 6.8146677000
Si 2.7107482500 0.0296959900 8.2283531000
Si 3.9919154400 1.4420609500 9.6149799800
Si 16.2997733000 2.7414950900 8.1652111100
Si 1.3230671000 4.1373101200 9.4893977600
Si 16.2399442600 0.0366047300 10.9007820500
Si 1.2413774500 1.3357705700 12.3395512600
Si 2.5312937800 2.8743886700 11.0750794100
Si 4.1173181500 4.1344378000 12.2910319600
Si 2.6815681300 0.0132583300 13.6370710600
Si 4.0289291500 1.4097082300 14.9734324200
Si 16.1907721700 2.6945588300 13.7101845600
Si 1.3300765300 4.0760122800 14.9556436400
Si 0.0080123400 5.4665886000 16.3139390400
Si 1.3432239000 6.8169688100 1.3855644500
Si 2.6981165900 8.1743503000 0.0325973600
Si 4.0555796700 9.5105158100 1.4081105000
Si 2.7017885800 5.4634225300 2.7489696400
Si 4.0558734300 6.8251940800 4.1064653600
Si 0.0034667100 8.2057009700 2.7325027800
Si 1.3381891900 9.5589045400 4.1050455200
Si 16.3011931400 5.4716477900 5.4623617300
Si 1.3393511700 6.8316731100 6.8242801600
Si 2.6932532400 8.1875042000 5.4584612500
Si 4.0692884500 9.5340329000 6.8051041900
Si 2.7200016800 5.4877719300 8.1716901400
Si 4.0763060400 6.8354103900 9.5551835900
Si 16.2909931500 8.1872920400 8.1786261300
Si 1.3203971500 9.5366114500 9.5511525500
Si 16.3141838400 5.4754013900 10.8850822300
Si 1.3711359600 6.8184049700 12.2545241700
Si 2.7159869600 8.2049176100 10.9020550000
Si 4.0309038700 9.5608955800 12.3141573700
Si 2.7164765600 5.4555889400 13.6361081800
Si 4.0695822100 6.8050062700 15.0230614700
Si 16.3155057600 8.1831957200 13.6013955900
Si 1.3476025500 9.5342940200 14.9799277700
Si 16.3094836900 10.8925241400 0.0143293800
Si 1.3681396100 12.2297178100 1.3748405900
Si 2.6845220500 13.6408246600 0.0272373900
Si 4.0546331100 14.9991037400 1.3755701000
Si 2.7152688900 10.8897171000 2.7539309100
Si 4.0551227100 12.2750383900 4.0942743400
Si 16.3051099300 13.5902980100 2.7032410600
Si 1.3209846700 14.9745258500 4.0882359500
Si 16.2480552900 10.9153394700 5.4120146000
Si 1.2932031700 12.2477350600 6.7883435700
Si 2.6858113300 13.6254512400 5.4660337200
Si 4.0578318300 15.0148198800 6.8045656300
Si 2.6377979500 10.8450003600 8.1211471700
Si 3.7399839500 12.5688795800 9.2311178000
Si 16.2812174900 13.6298902700 8.1705803800
Si 1.2945234600 15.0047667700 9.5589371800
Si 16.2775128500 10.9154863500 10.8926547000
Si 1.3018837700 12.2646262400 12.2780086200
Si 2.6313678800 13.6723711700 10.9595829300
Si 4.0473380800 15.0046035700 12.2618844800
Si 2.6777329400 10.9368655200 13.6435337700
Si 4.0522014400 12.2889430100 14.9886263100
Si 16.2751464600 13.6417222600 13.6245373200
Si 1.3024125400 15.0020903000 14.9960355800
Si 5.3855109500 0.0922731500 0.0404121800
Si 6.7769685500 1.4101145900 1.3924319000
Si 8.1671368700 2.7282106300 0.0310538200
Si 9.5953633700 4.0780522800 1.3159646400
Si 8.0996048000 16.3011441800 2.6970231500
Si 9.3200127100 1.3091477900 4.1915903600
Si 5.4125205200 2.7552038700 2.7506506000
Si 6.7777029500 4.1014551300 4.1109860000
Si 5.3968370200 0.0555264400 5.4351889600
Si 6.7056339300 1.3773995700 6.8753616900
Si 8.0496167100 2.7416419700 5.5312320300
Si 9.5018825400 4.0870772300 6.7955733200
Si 8.1230729300 0.0275402900 8.1828693200
Si 9.4826902500 1.4077400400 9.5213685900
Si 5.3671509800 2.7593981000 8.2300667000
Si 6.7900082100 4.1145111100 9.5295938600
Si 5.3916635800 0.0602354000 10.9066082800
Si 6.7829090200 1.3919439300 12.2595507300
Si 8.1354597900 2.7555792300 10.8991500500
Si 9.5016867000 4.1004596100 12.2681024000
Si 8.1495112900 0.0470199800 13.6204246900
Si 9.5319929000 1.3906954500 14.9849869600
Si 5.4393668800 2.7412176500 13.6362550600
Si 6.7992290000 4.0950250600 14.9983530200
Si 5.4244993800 5.4276001700 0.0427309200
Si 6.8051041900 6.7401670000 1.4171795100
Si 8.1400783400 8.1279526000 0.0788413200
Si 9.4797852900 9.5026495800 1.4231722100
Si 8.2144811200 5.3894930300 2.7546163500
Si 9.5082962900 6.8139333000 4.0963469800
Si 5.4428593500 8.1471612100 2.7425232500
Si 6.7776376700 9.5345388200 4.0898353000
Si 5.4304561700 5.4827943400 5.4644017200
Si 6.7910037300 6.8352798300 6.8329297500
Si 8.1421020200 8.1785445300 5.4532551800
Si 9.5048527800 9.5279618600 6.8186497700
Si 8.1641829500 5.4604359700 8.1660760700
Si 9.5248121100 6.8010568400 9.5425192800
Si 5.4254949000 8.1999563400 8.1922533100
Si 6.8277400000 9.5576152600 9.5153791600
Si 5.4480491100 5.4761521100 10.8984809300
Si 6.7883435700 6.8431460600 12.2730799900
Si 8.1475039300 8.1753784600 10.8895049400
Si 8.1378425100 5.4569761300 13.6212733200
Si 9.4704013000 6.8651290700 14.9423591800
Si 5.4072981200 8.1788219700 13.6348352300
Si 6.6913049900 9.4555990900 15.1314914000
Si 5.3619612300 10.9132668300 0.0611085200
Si 6.7713381600 12.2541651400 1.3627523900
Si 8.0583968600 13.5956346400 16.2455093800
Si 9.4316576800 14.9039745900 1.3398946300
Si 8.1292745200 10.9037196400 2.7372518900
Si 9.4841753700 12.2427085100 4.1146743100
Si 5.4137445100 13.6244557200 2.7245549500
Si 6.7516562600 14.9816903200 4.0975546500
Si 5.4142830700 10.9023324400 5.4383713600
Si 6.7870053400 12.2532349000 6.7931579700
Si 8.1302863600 13.6294006700 5.4486366300
Si 9.4857094400 14.9924451900 6.8123829000
Si 8.1608047200 10.9231241000 8.1572469600
Si 9.4892019200 12.2823171000 9.5406588100
Si 5.4688570800 13.6716367800 8.1199884500
Si 6.7519989800 15.0123718800 9.5455058400
Si 5.8920504100 10.6710457200 11.3769663500
Si 7.0547345600 12.4558800600 12.5513845600
Si 8.1516655300 13.6948764200 10.8844947100
Si 9.5189695600 15.0624252500 12.2049114400
Si 9.6456941800 9.4553216500 12.1649275000
Si 8.8324697100 12.3879236700 14.3339667400
Si 5.3980936600 13.6995276200 13.6580911900
Si 6.7341122900 15.0755465100 15.0072800500
Si 10.7755425400 16.1655251700 16.2204745300
Si 13.8740534600 16.0325499900 3.0197670200
Si 13.3512593000 2.8753678600 0.2372223000
Si 14.9451498900 4.1735567900 1.3733179400
Si 14.9501601300 14.9052965100 1.2935181500
Si 14.9860151200 1.4355525400 4.1241562200
Si 11.5392032400 2.9626471000 2.1161951500
Si 12.3133413700 4.1039684100 4.0357509000
Si 10.8422749300 0.0416228000 5.4396443200
Si 12.2086976800 1.3792584100 6.8075195500
Si 13.5771441100 2.7395856500 5.4620679700
Si 14.9390951800 4.1052740000 6.8143086600
Si 13.5720359500 0.0245925700 8.1693400600
Si 14.9188910500 1.4028456800 9.5263135500
Si 10.8553798700 2.7426701300 8.1654069500
Si 12.2190445400 4.0932135400 9.5254649100
Si 10.8742947200 0.0862757200 10.8675219300
Si 12.2204154200 1.4073010300 12.2592243300
Si 13.5799021800 2.7577497900 10.8982198100
Si 14.9780672900 4.0868161100 12.2449280300
Si 13.5185880300 0.0249829500 13.6488867300
Si 14.7287469900 1.4342485800 15.1302184400
Si 10.8783910400 2.7645225800 13.6313101100
Si 12.2189792600 4.1716473500 14.9637057100
Si 10.8338211800 5.5408934600 16.2808747700
Si 12.2262416500 6.8274952000 1.3711473800
Si 13.6127543000 8.1633016700 0.0203002600
Si 14.9480874900 9.5449836000 1.3758475400
Si 13.6454105700 5.5545206400 2.7665462500
Si 14.9800583300 6.8913879100 4.1282688500
Si 10.8753881600 8.1691115800 2.7545837100
Si 12.2203827800 9.5432047200 4.1072160800
Si 10.8618589000 5.4057150900 5.3915330200
Si 12.2183591000 6.7718930400 6.7769848700
Si 13.5740922700 8.1949624300 5.4772945100
Si 14.9395358200 9.5568645400 6.8174420900
Si 13.5785965800 5.4577268500 8.1765861300
Si 14.9298254400 6.8275604800 9.5345714600
Si 10.8686480100 8.1382341900 8.1444521000
Si 12.2339773200 9.5084431700 9.4876352000
Si 10.8700841700 5.4365761600 10.8988399700
Si 12.2492854600 6.7891758900 12.2385142800
Si 13.5781069800 8.1844523600 10.8902719800
Si 14.9369083100 9.5398754500 12.2486979400
Si 13.6260387600 5.4565518100 13.5954061600
Si 14.9662353100 6.8200532900 14.9631181900
Si 10.9185218600 8.1390501900 13.6154634100
Si 12.2699465500 9.5014908600 14.9590871500
Si 10.8881014200 10.7552568100 0.0447084100
Si 12.1683546900 12.2335856400 1.3400023400
Si 13.5303547300 13.5651326000 16.2863256400
Si 16.2375125900 0.0608219400 0.0082539400
Si 13.5513748600 10.8878239800 2.7112052100
Si 14.8863000600 12.2771599800 4.0581745500
Si 10.7989780300 13.5724929100 2.7000749900
Si 12.1235726800 14.9295153600 4.0912388200
Si 10.8581542700 10.8948905300 5.4687102000
Si 12.2024797700 12.2509827400 6.8443374200
Si 13.5293428900 13.6129827800 5.4583959700
Si 14.9207678500 14.9917923900 6.7925704500
Si 13.5881927300 10.9072937200 8.1821022900
Si 14.9155291400 12.2872783700 9.5490799200
Si 10.8477747600 13.6384419400 8.1823470900
Si 12.2105418400 14.9963783000 9.5408546500
Si 10.8931279800 10.8944499000 10.8188231200
Si 12.1922634600 12.2232061400 12.2365232400
Si 13.5490900600 13.6346230700 10.9225202600
Si 14.9019345900 15.0061539700 12.2819580600
Si 13.5804081000 10.8987257300 13.6062263100
Si 14.9486913300 12.2421862700 14.9681447400
Si 10.7412869100 13.5580823700 13.5093509200
Si 12.1586606300 14.8513916200 14.8744191100
H 10.0211026200 2.3274409400 3.2632937300
H 6.6469146500 9.5953144100 12.1375099400
H 14.7591021500 15.1579787200 3.9115232300
H 7.7430459300 10.3605255100 14.4739105500
H 11.5471673900 1.4429324400 2.3220227100
H 8.9895658100 10.3662701500 13.2124415700
H 11.8060348700 0.3071142300 0.8948292600
H 2.8539070900 13.4475471700 8.3544575700
H 9.8171355500 11.3849957800 15.2976124500
H 1.6103427700 3.8143540900 12.0036698000
