&CONTROL
  dt = 30.D0,
  prefix='divacancyOptimizeIteration',
  pseudo_dir = './',
  outdir = './'
  wf_collect = .true.,
  verbosity = 'high',
  tprnfor = .true.,
  tstress = .true.,
/

&SYSTEM
  ibrav = 0, nat = 231, ntyp = 2,
  ecutwfc	= 42.D0,
  degauss	= 0.05D0,
  occupations	= "smearing",
  smearing	= "marzari-vanderbilt",
/
&ELECTRONS
  electron_maxstep = 200,
  conv_thr = 1.D-8,
  mixing_beta = 0.3D0,
  scf_must_converge=.false.,
/
&IONS
/
ATOMIC_SPECIES
Si  28.08  Si.pbe-hgh.UPF
H  1.00784  H.pbe-hgh.UPF
CELL_PARAMETERS { angstrom }
   16.3199774331  0.0  0.0
   0.0  16.3199774331  0.0
   0.0  0.0  16.3199774331
K_POINTS {automatic}
2 2 2  0 0 0
ATOMIC_POSITIONS (angstrom)
Si 1.3052489500 1.3206256300 1.4514123000
Si 2.8784033800 2.5373974500 0.2353340700
Si 4.1033482500 4.0981911300 1.4503971900
Si 2.6910174000 16.2950405100 2.7816422300
Si 4.0418056100 1.3601722000 4.1199456600
Si 16.2833717200 2.7128208900 2.7993167700
Si 1.3265367300 4.0897047400 4.1285952500
Si 0.0025547000 0.0161101400 5.4631777300
Si 1.3475895000 1.3629955600 6.8363406300
Si 2.6889284400 2.7294999100 5.4754993100
Si 4.0404836900 4.0982400900 6.8217668900
Si 2.7010541900 16.3025313800 8.1718859800
Si 4.0176194000 1.3315159500 9.5493573600
Si 16.3165339200 2.7150567300 8.2061579300
Si 1.3417681600 4.0900311400 9.5519195900
Si 16.3245470300 -0.0002058200 10.9029689200
Si 1.3568298700 1.3598963900 12.2567110500
Si 2.6933348400 2.7214378400 10.8933075000
Si 4.0531969600 4.0570974300 12.2644140800
Si 2.6782715000 0.0066854800 13.6482339300
Si 4.0890519500 1.3114097400 14.9933754300
Si 16.2456725800 2.6507070500 13.5812567400
Si 0.9805156700 4.4611311100 14.6411903100
Si 16.2389487500 5.5108157400 0.1380516700
Si 1.3849867200 6.8409755000 1.3924400600
Si 2.7349834200 8.1955989100 0.0256600600
Si 4.1008023300 9.5458812000 1.3735545800
Si 2.6866926000 5.4397259200 2.7573254700
Si 4.0460814500 6.8035374700 4.1006717700
Si 0.0134695800 8.1895605200 2.7340858200
Si 1.3740180700 9.5341145000 4.0929361000
Si 16.2847262800 5.4586407700 5.4772292300
Si 1.3402846700 6.8068504300 6.8247534400
Si 2.6968436300 8.1589442400 5.4630471700
Si 4.0502593600 9.5121151700 6.8247534400
Si 2.6906420400 5.4527819000 8.1884507600
Si 4.0513201600 6.8120728200 9.5410994500
Si 0.0011891100 8.1702703000 8.1886302800
Si 1.3583296700 9.5528498300 9.5229353100
Si 16.3232414300 5.4444750300 10.9351356000
Si 1.3694958000 6.8626321100 12.2325248500
Si 2.7196916000 8.2142200000 10.8698883300
Si 4.0730420500 9.5362687300 12.2645283200
Si 2.7648163400 5.5245245200 13.5550305400
Si 4.0796842800 6.8229092900 14.9942077500
Si 0.0118508500 8.1493480900 13.6685686200
Si 1.3649376300 9.5344898600 14.9951379900
Si 16.3159300800 10.8838908700 0.0248484700
Si 1.3568674000 12.2378941200 1.3800548300
Si 2.7047261800 13.5927133600 0.0140010200
Si 4.0335803400 14.9448234900 1.4010945400
Si 2.7260563900 10.8858655900 2.7287981500
Si 4.0697943700 12.2325411700 4.1030381700
Si 0.0071770200 13.5926644000 2.7402547700
Si 1.3392238800 14.9417879800 4.1280730100
Si 0.0348105100 10.8854575900 5.4639284400
Si 1.3848790100 12.2412560300 6.8289150400
Si 2.7189408800 13.5895799300 5.4617089300
Si 4.0653063800 14.9366308700 6.8297473600
Si 2.7428333300 10.8990684500 8.1961048300
Si 4.1157677500 12.2443731500 9.5641269300
Si 0.0484925300 13.6415917000 8.1535912900
Si 1.3681396100 14.9662026700 9.5481823200
Si 16.3080638500 10.8826831900 10.8897497400
Si 1.3500929800 12.2385142800 12.2521088200
Si 2.7158564000 13.5908202500 10.8985788500
Si 4.0118421300 14.9842199200 12.2656707200
Si 2.7056237800 10.8860614300 13.6160509300
Si 4.0574075100 12.2466742700 14.9648644300
Si 16.3080964900 13.5962384800 13.6148922100
Si 1.3367563000 14.9441543800 14.9891159100
Si 5.4068574800 16.3060075300 0.0761393900
Si 6.7604690500 1.3747084000 1.3992454900
Si 8.0979075200 2.6973985100 16.3141185600
Si 9.4445178200 4.1045559200 1.3039645600
Si 8.1218815700 0.0086900000 2.7344122200
Si 9.4449584600 1.3121914700 4.1447683500
Si 5.4321208100 2.7178474400 2.7924787000
Si 6.8005672400 4.0845802700 4.1113776700
Si 5.3937851800 16.3071988900 5.4669150000
Si 6.7073964900 1.3775187000 6.8234804800
Si 8.1042886300 2.6908378800 5.4765111500
Si 9.4406173500 4.0532296000 6.8351655900
Si 8.0706531600 0.0713467000 8.1984549000
Si 9.4081895500 1.4167747800 9.5505650300
Si 5.3325036700 2.6909521200 8.1840606800
Si 6.6563965600 3.9934332000 9.5895208200
Si 5.3811535200 -0.0130033500 10.9094642700
Si 6.7199791900 1.3403107900 12.2732105500
Si 8.0775728300 2.7210788000 10.9489096600
Si 9.4644118700 4.1122263100 12.2358378000
Si 8.0673402000 16.2987288200 13.6384582600
Si 9.4391648700 1.3523239200 14.9395521400
Si 5.4015045300 2.7179127200 13.6488867300
Si 6.7685474400 4.0879748300 14.9768922500
Si 5.4075918800 5.4339812900 0.0200437100
Si 6.7222639800 6.8156632200 1.3870414100
Si 8.1175567800 8.1420693800 0.0605449900
Si 9.4760806600 9.5105321300 1.4015041700
Si 8.1017753600 5.4482612700 2.6945261900
Si 9.4650483500 6.7974011600 4.0601003100
Si 5.4121941200 8.1798011700 2.7681129700
Si 6.7953448400 9.5054892600 4.1437238700
Si 5.4042952500 5.4387956800 5.4443607900
Si 6.7392694000 6.7893554100 6.8171156900
Si 8.1678549500 8.1242316500 5.4952138400
Si 9.5743758800 9.5044284600 6.8282296000
Si 7.9323903100 5.2667994400 8.1407311400
Si 9.2834886000 6.6362903400 9.4745955400
Si 5.4102357200 8.1626488700 8.1835058000
Si 6.7814565400 9.5356322500 9.5133881300
Si 5.3813656800 5.4426798300 10.9111778700
Si 6.7656914400 6.7805589400 12.2530227400
Si 8.0851616200 8.1195478100 10.8355347800
Si 8.1245906900 5.4525697400 13.6235581200
Si 9.4591078800 6.8287681600 14.9773165700
Si 5.4265230600 8.1587810400 13.6009223100
Si 6.7525212200 9.4704829000 15.0248893000
Si 5.4425492700 10.9138053900 16.3116542400
Si 6.7814728600 12.2352013200 1.3945926600
Si 8.0993110400 13.6477606500 0.0603759200
Si 9.5113644500 15.0021719000 1.3902254400
Si 8.1248354900 10.8681584100 2.7537024300
Si 9.5082310100 12.2362947600 4.0631521400
Si 5.4125042000 13.5924032800 2.7374314100
Si 6.7507097100 14.9744932100 4.0794558000
Si 5.4084078800 10.8612061000 5.4683348400
Si 6.7997512400 12.2169719100 6.7917870900
Si 8.1110614200 13.5778621800 5.3818879200
Si 9.3164386400 14.8155203100 6.9759253900
Si 8.1788872500 10.8572566700 8.1587647200
Si 9.5315849000 12.2440793900 9.4865580800
Si 5.4582327700 13.5882743300 8.1694053400
Si 6.7555404200 14.9896544700 9.5330047400
Si 5.4797098600 10.8781625600 10.9372572000
Si 6.7849979800 12.3307058300 12.2470985800
Si 8.1631874300 13.6184826100 10.8168810400
Si 9.5187737200 14.9513841300 12.2237447000
Si 9.4900832000 9.4622576400 12.1344744200
Si 9.7429938900 12.5026367900 15.2066938500
Si 5.3662860200 13.6354064300 13.5995514300
Si 6.7081308800 14.9499806100 15.0153584400
Si 10.8295779900 16.2879413200 16.2352441100
Si 13.5935293600 16.2891653200 2.7623683400
Si 13.7027426500 2.9091012600 16.1665696500
Si 14.9164267300 4.0905860200 1.4768127100
Si 14.9405803000 14.9484628500 1.4019611300
Si 14.9023425900 1.3414580800 4.1377344400
Si 10.5735828200 3.0167315100 3.0278943700
Si 12.2547689700 4.1437075500 4.2278370300
Si 11.0215498800 0.0787079900 5.3684729000
Si 12.2212477400 1.3534532600 6.9492422300
Si 13.5746797900 2.6998791500 5.5588454300
Si 14.9590381900 4.0855594700 6.8634807500
Si 13.6283235600 16.2817723700 8.2133713600
Si 14.9461617300 1.3603451900 9.5672277300
Si 10.8097328900 2.7408749300 8.2254318300
Si 12.1878733900 4.0928545000 9.5666728500
Si 11.0356666600 0.1905732700 10.7184226200
Si 12.2413865900 1.3952846300 12.3259730400
Si 13.5553406200 2.7252240700 10.9014511700
Si 14.9015755500 4.0910919400 12.2611827300
Si 13.6038435900 -0.0104703400 13.6196413300
Si 14.9454762900 1.2996805700 15.0055990900
Si 10.7878641200 2.7223680800 13.5922890400
Si 12.1083298200 4.1108880800 14.9398785400
Si 10.8286640700 5.4851117800 0.0115896800
Si 12.2066413600 6.8124155400 1.3904620800
Si 13.5419908700 8.1952398700 0.0307923700
Si 14.9515962900 9.5249589900 1.3754313800
Si 13.5649530800 5.4881799300 2.7975542100
Si 14.9653377100 6.8511918100 4.1036909700
Si 10.8538131500 8.1668104700 2.7483005200
Si 12.2202522200 9.5409036100 4.0819690800
Si 10.7500507400 5.4590977300 5.4855524100
Si 12.3648635400 6.6848259600 6.7000851400
Si 13.6161325300 8.2355502100 5.4351400000
Si 14.9917597500 9.5344082600 6.8124645000
Si 13.6124442200 5.4211701000 8.2513642700
Si 14.9818045600 6.8014158800 9.5621032600
Si 11.3336694500 8.4817533900 8.0859613000
Si 12.6062849700 9.8915872800 9.8367848000
Si 10.8109568900 5.4819783400 10.8640131400
Si 12.1478241600 6.8585031600 12.2498403400
Si 13.6588908700 8.1281321200 10.9691301100
Si 14.9947626300 9.5165705200 12.3003996300
Si 13.5091224400 5.4726433100 13.6016403900
Si 14.8897598900 6.8171809700 15.0043424500
Si 10.7917319600 8.2169780800 13.6312121900
Si 12.1989056900 9.5382924100 14.9741341700
Si 10.8745068800 10.8507450000 0.0685842200
Si 12.2601545700 12.2083712800 1.3904979800
Si 13.6045616700 13.5817626600 0.0224251200
Si 16.3141022400 16.2886920400 0.0466219300
Si 13.6238518800 10.8827321500 2.7593001800
Si 14.9909600700 12.2322963700 4.1075588000
Si 10.8662652900 13.5797063400 2.6996343500
Si 12.2692611100 14.8787765500 4.0605899100
Si 10.8558694700 10.8917571000 5.4315006500
Si 12.2324595700 12.2474902600 6.7663605600
Si 13.6338560300 13.5843412200 5.4527329400
Si 14.9788343300 14.9694340200 6.8015464300
Si 13.6918735500 10.9926145600 8.0919833700
Si 15.0204992300 12.2951772400 9.5072028500
Si 10.9208393000 13.5875725700 8.1631874300
Si 12.2787267000 14.8987358800 9.5407077700
Si 10.8277827900 10.9414677500 10.9366370400
Si 12.2756585500 12.2188976600 12.2663888000
Si 13.6273117200 13.5680212400 10.9057922800
Si 14.9637873100 14.9629060300 12.2527126600
Si 13.6009386300 10.8598515400 13.6325830700
Si 14.9601805900 12.2340099600 14.9786874500
Si 10.9453029500 13.6375769800 13.5646430000
Si 12.2735532700 14.9435505400 14.9654682700
H 9.6689011900 7.4792987800 8.2076430500
H 11.0375924200 7.6453708700 9.3515592300
H 10.5936074300 13.4441689300 16.0725502600
H 8.4073342900 14.6420226300 13.4359926200
H 2.0304989500 3.4958207700 15.5926123600
H 0.0690356300 5.3498191600 13.7636651300
H 8.4002024600 13.9106591600 7.8713372800
H 9.7203254400 3.9392182300 3.9119475500
H 8.4395662500 10.4250547000 12.7111571400
H 11.9421271700 1.1096833900 9.7784735200
H 13.4994610100 10.8026337000 10.7270069300
H 12.0254732900 0.9561842100 4.5302625400
H 7.7883665100 10.1329107900 14.1115744100
H 7.8676816000 12.0672034700 13.3353962800
H 11.7608775000 1.0744926300 0.4154772500
H 14.6000639700 3.8180587200 15.3326514400
H 13.2858488300 5.7874720000 5.7048602700
