&CONTROL
  dt = 30.D0,
  prefix='divacancyOptimizeIteration',
  pseudo_dir = './',
  outdir = './'
  wf_collect = .true.,
  verbosity = 'high',
  tprnfor = .true.,
  tstress = .true.,
/

&SYSTEM
  ibrav = 0, nat = 223, ntyp = 2,
  ecutwfc	= 42.D0,
  degauss	= 0.05D0,
  occupations	= "smearing",
  smearing	= "marzari-vanderbilt",
/
&ELECTRONS
  electron_maxstep = 200,
  conv_thr = 1.D-8,
  mixing_beta = 0.3D0,
  scf_must_converge=.false.,
/
&IONS
/
ATOMIC_SPECIES
Si  28.08  Si.pbe-hgh.UPF
H  1.00784  H.pbe-hgh.UPF
CELL_PARAMETERS { angstrom }
   16.3199774331  0.0  0.0
   0.0  16.3199774331  0.0
   0.0  0.0  16.3199774331
K_POINTS {automatic}
2 2 2  0 0 0
ATOMIC_POSITIONS (angstrom)
Si 1.3367987300 1.3629825000 1.4511544400
Si 2.6936286000 2.7105360900 0.0585108700
Si 4.0694353300 4.0899985000 1.3842245800
Si 2.7418378100 0.0187239100 2.7534739500
Si 4.0869956300 1.3821437800 4.1125527100
Si 16.2962971500 2.7483331600 2.7548774700
Si 1.3538580000 4.0995130500 4.1140867900
Si 0.0080996200 0.0202583100 5.5291920300
Si 1.3731155700 1.3788128800 6.8644599500
Si 2.7096874500 2.7273783100 5.4695751600
Si 4.0743639700 4.0844660300 6.8278705600
Si 2.7316541400 0.0124774900 8.2098788900
Si 4.0837969100 1.3758720200 9.5636536600
Si 16.3115726400 2.7381658100 8.1961048300
Si 1.3562129700 4.0894436300 9.5540085500
Si 16.3145918400 0.0120467700 10.8945804600
Si 1.3565605900 1.3458824300 12.2746140700
Si 2.7092141700 2.7258605500 10.9197621800
Si 4.0641966200 4.0904554600 12.2728678300
Si 2.7244733500 16.2736613400 13.6107469400
Si 4.0433233700 1.3513838900 14.9901603900
Si 16.2954811500 2.7098996100 13.6223667600
Si 1.3386314600 4.0621076600 14.9960029400
Si 16.3072641700 5.4337038500 0.0272452200
Si 1.3463736600 6.7969605200 1.3848382100
Si 2.6971863500 8.1653743100 0.0284775400
Si 4.0129192500 9.5191817200 1.4318887100
Si 2.7167213600 5.4521943800 2.7497040400
Si 4.0754410800 6.8078785900 4.1130096700
Si 16.3049467300 8.1572143200 2.7421805300
Si 1.3317052600 9.5246162700 4.1040989600
Si 16.3121112000 5.4636999600 5.4667191600
Si 1.3593056100 6.8129704200 6.8266302400
Si 2.7132288900 8.1756558900 5.4619374100
Si 4.0749514900 9.5340492200 6.8161854500
Si 2.7156605600 5.4470209500 8.1877490000
Si 4.0711326100 6.8119749000 9.5474479200
Si 16.3153262400 8.1569858400 8.1932488300
Si 1.3537062200 9.5267215500 9.5373784900
Si 16.3125844800 5.4478043100 10.9062655600
Si 1.3487074200 6.8005835600 12.2681187200
Si 2.7042202600 8.1634322300 10.9043887600
Si 4.0558897500 9.5352568900 12.2594854500
Si 2.6993079500 5.4388283200 13.6381155400
Si 4.0627931000 6.8175563300 14.9825716000
Si 16.3083576100 8.1611800700 13.6227747600
Si 1.3427392000 9.5245673100 14.9852644000
Si 16.2796670900 10.8793212800 0.0046201000
Si 1.3073264800 12.2680697600 1.3353886800
Si 2.7079738600 13.6086579800 0.0130132200
Si 4.0701370900 14.9623511500 1.3768120500
Si 2.6510497700 10.9218185000 2.7447101200
Si 4.0436334500 12.2669926400 4.1000352900
Si 0.0288685700 13.5679559600 2.8744376300
Si 1.3720825200 15.0393488000 4.1383546000
Si 16.2876312400 10.8553472300 5.4764295500
Si 1.3335412600 12.2523373000 6.7954590800
Si 2.7083981700 13.6409062600 5.4731492300
Si 4.0825729100 14.9798951300 6.8351655900
Si 2.6908215600 10.8877423800 8.1528568900
Si 4.0406795300 12.2606278500 9.4985859100
Si 0.0006206100 13.6038762300 8.1826734900
Si 1.3560889400 14.9673124200 9.5461260000
Si 16.3137105600 10.8795987200 10.8991174100
Si 1.3532231500 12.2423005100 12.2547689700
Si 2.7140122500 13.6035824700 10.8990521300
Si 4.1144947900 14.9302171100 12.2493017800
Si 2.7001729100 10.8824547100 13.6240640400
Si 4.0640987000 12.2284448500 14.9821962400
Si 16.2910094700 13.5897920900 13.6014119100
Si 1.3343393100 14.9233464000 14.9689933800
Si 5.4279592100 0.0038626600 0.0160305600
Si 6.7867442200 1.3688919600 1.3803551200
Si 8.1365695500 2.7344448600 0.0191856000
Si 9.4944406300 4.1053229600 1.3729376900
Si 8.1434076200 0.0262906700 2.7580598700
Si 9.5347836200 1.3646846700 4.0976525700
Si 5.4394321600 2.7369907800 2.7418867700
Si 6.8013016400 4.0845802700 4.1064980000
Si 5.4384366400 0.0172877500 5.4724474700
Si 6.8046472300 1.3789173300 6.8183886500
Si 8.1692095000 2.7279005500 5.4628513300
Si 9.5081167700 4.0965101800 6.8287844800
Si 8.2049992100 0.0094016900 8.1173283000
Si 9.5085247700 1.3708503600 9.5254975500
Si 5.4391873600 2.7278842300 8.1881733200
Si 6.7898939700 4.0953025000 9.5450652000
Si 5.4519332600 16.3196673500 10.8884115000
Si 6.7819787800 1.3669449900 12.2598608100
Si 8.1443215400 2.7220253600 10.8945315000
Si 9.5061257400 4.0801738800 12.2523046600
Si 8.1445663400 0.0120447500 13.6142720500
Si 9.4954361500 1.3776247800 14.9739220100
Si 5.4098114000 2.7150567300 13.6272464400
Si 6.7727416700 4.0828666700 14.9777408900
Si 5.4169595500 5.4460907100 0.0138179100
Si 6.7654303200 6.7987394000 1.3858973800
Si 8.1396540200 8.1281647600 0.0225822800
Si 9.4718537800 9.4823801700 1.3931271300
Si 8.1417593000 5.4554747000 2.7452813200
Si 9.4997609400 6.8106693000 4.1088970400
Si 5.4217413000 8.1729794200 2.7513360400
Si 6.7854712600 9.5387493700 4.0991376900
Si 5.4362008000 5.4413252800 5.4673719600
Si 6.7907752500 6.8068177900 6.8232356800
Si 8.1398825000 8.1739749400 5.4607460500
Si 9.5038572600 9.5321724200 6.8149125000
Si 8.1522856900 5.4633572500 8.1965291500
Si 9.4993203000 6.8380705400 9.5651387700
Si 5.4298196900 8.1658475900 8.1797195700
Si 6.7856671000 9.5372316100 9.5342940200
Si 5.4268821000 5.4513620600 10.9083055600
Si 6.7898613300 6.8084171500 12.2721987100
Si 8.1300415600 8.2098625700 10.9367676000
Si 8.1411881000 5.4301460900 13.6149901300
Si 9.4953545500 6.7949858000 14.9623674700
Si 5.4236670600 8.1805029300 13.6104531800
Si 6.6717536500 9.4610010000 15.1109282200
Si 5.3522998000 10.8844131100 0.0958674600
Si 6.7657893600 12.2330960400 1.4010831200
Si 8.0991152000 13.6253206800 0.0601280200
Si 9.4887939200 14.9656967500 1.4110024000
Si 8.1530527300 10.8904841400 2.7382310900
Si 9.5222988300 12.2544752100 4.0953677800
Si 5.4259355400 13.6152512500 2.7519398700
Si 6.7889637300 14.9761904900 4.1092071200
Si 5.4186894700 10.9014838100 5.4495668600
Si 6.7937944500 12.2552585700 6.8030968300
Si 8.1645256700 13.6163610100 5.4513457400
Si 9.5916750600 14.9857050400 6.7328882900
Si 8.1399804200 10.8906636600 8.1688341400
Si 9.5041836600 12.2585552100 9.5037919800
Si 5.4409825600 13.6078419800 8.1686219800
Si 6.8090536200 14.9956765400 9.4815478500
Si 5.3620428300 10.8771670400 10.8390272500
Si 6.7231289400 12.2869519700 12.1076117400
Si 8.1479935300 13.6348515500 10.8377216500
Si 9.4791977700 14.9856071200 12.2228144600
Si 9.6014833600 9.4998425400 12.2294730100
Si 9.7129651300 12.4524365400 15.1718833400
Si 5.4715661900 13.5469358300 13.6233786000
Si 6.7873480500 14.9655825100 14.9674919400
Si 10.8289415100 16.3017480200 0.0011265500
Si 12.1425528100 1.4353322200 1.2872447500
Si 13.5771767500 2.7630537800 0.0041369000
Si 14.9323223900 4.0914183400 1.3868831100
Si 14.4453505900 15.2213165500 2.4056136300
Si 15.0371292900 1.5007296400 4.2703995300
Si 10.8515446700 2.7511728400 2.7388022900
Si 12.2213946200 4.0987949700 4.0970976900
Si 11.0051809400 16.3015195400 5.3227280000
Si 12.2351197200 1.3536034100 6.7981355600
Si 13.5643655600 2.7995126100 5.5197264500
Si 14.9617473100 4.1252496600 6.8522362800
Si 13.5886007300 0.0145143800 8.1799317300
Si 14.9485607700 1.3717283800 9.5418664900
Si 10.8688275300 2.7153831300 8.1611800700
Si 12.2231082200 4.0805492400 9.5259545100
Si 10.8666896100 0.0165443800 10.8869590300
Si 12.2283306100 1.3748618100 12.2474576200
Si 13.5872135300 2.7348855000 10.8929158200
Si 14.9583690800 4.0797985200 12.2555196900
Si 13.5859405700 0.0132640600 13.5990781600
Si 14.8919794100 1.3812771900 14.9730570600
Si 10.8666896100 2.7251914300 13.6130643800
Si 12.2146381500 4.1036093700 14.9657783500
Si 10.8599005000 5.4585428500 0.0165367100
Si 12.2193056600 6.8095105800 1.3819561100
Si 13.5941495200 8.1551580000 0.0276786800
Si 14.9478263700 9.5210421900 1.3873221100
Si 13.5807345000 5.4555726200 2.7439594100
Si 14.9411515000 6.8102449800 4.1066612000
Si 10.8661184100 8.1606088800 2.7528048300
Si 12.2241363800 9.5252201100 4.1114266300
Si 10.8604390600 5.4511172600 5.4629002900
Si 12.2179184700 6.8074869100 6.8266139200
Si 13.5801959400 8.1621103100 5.4696894000
Si 14.9450030100 9.5024374200 6.8400126200
Si 13.5834762600 5.4656257200 8.1969861100
Si 14.9514820500 6.8096901000 9.5537637500
Si 10.8573382700 8.1728325400 8.1790830900
Si 12.2390202000 9.5185289200 9.5198182000
Si 10.8603737800 5.4384856000 10.8874975900
Si 12.2568742500 6.7640920900 12.2323126900
Si 13.5864954500 8.1682139900 10.8987094100
Si 14.9507966100 9.5173049200 12.2560745700
Si 13.6058019900 5.4372942400 13.6191027700
Si 14.9556110000 6.7993106000 14.9864394400
Si 10.9004556500 8.0920323300 13.5930234400
Si 12.2368986000 9.4652278700 14.9461454100
Si 10.8409203700 10.7578516800 16.3129924800
Si 12.1720919700 12.1478078400 1.3459770800
Si 13.4570617100 13.4883960700 16.2164761400
Si 0.0315223600 0.0809839700 16.2864072400
Si 13.5763117900 10.8762204800 2.7395203700
Si 14.9119387400 12.1962455400 4.1433485100
Si 10.8995906900 13.5830845800 2.7123802500
Si 12.4536442200 14.8908043700 3.9038038800
Si 10.8695292900 10.8939276600 5.4633572500
Si 12.2320026100 12.2405705900 6.8301880000
Si 13.5893351300 13.5908692100 5.4760215500
Si 14.9441054200 14.9585322800 6.8358999900
Si 13.6031907900 10.8881340600 8.1835384400
Si 14.9635261900 12.2481920200 9.5409036100
Si 10.8768243200 13.6201472500 8.1589442400
Si 12.2263069300 14.9720289000 9.5340329000
Si 10.8822915100 10.9020386800 10.8411651700
Si 12.2409622700 12.2333734800 12.2092688800
Si 13.5991108000 13.6174218100 10.8844457500
Si 14.9535383600 14.9747216900 12.2480614600
Si 13.5588983700 10.8609776200 13.5918484100
Si 14.9380670200 12.2088282400 14.9330567900
Si 10.8760246400 13.6196413300 13.5199262600
Si 12.1958049000 14.9845463200 14.9221060900
H 10.6452928000 13.3070484800 16.0344431100
H 0.9638692900 0.9222582400 15.3630392400
H 7.6987698300 11.2107473800 12.6336046100
H 0.9237237800 12.6546084200 3.8079403300
H 9.1691508400 10.4975806800 13.3037844800
H 13.0606657800 0.6226903700 2.1408220000
H 14.1260175900 0.5735541800 3.5163513000
H 7.5667738600 10.5314936000 14.4546040100
H 14.2867367200 14.3370512200 0.9539940700
