&CONTROL
  dt = 30.D0,
  prefix='divacancyOptimizeIteration',
  pseudo_dir = './',
  outdir = './'
  wf_collect = .true.,
  verbosity = 'high',
  tprnfor = .true.,
  tstress = .true.,
/

&SYSTEM
  ibrav = 0, nat = 222, ntyp = 2,
  ecutwfc	= 42.D0,
  degauss	= 0.05D0,
  occupations	= "smearing",
  smearing	= "marzari-vanderbilt",
/
&ELECTRONS
  electron_maxstep = 200,
  conv_thr = 1.D-8,
  mixing_beta = 0.3D0,
  scf_must_converge=.false.,
/
&IONS
/
ATOMIC_SPECIES
Si  28.08  Si.pbe-hgh.UPF
H  1.00784  H.pbe-hgh.UPF
CELL_PARAMETERS { angstrom }
   16.3199774331  0.0  0.0
   0.0  16.3199774331  0.0
   0.0  0.0  16.3199774331
K_POINTS {automatic}
2 2 2  0 0 0
ATOMIC_POSITIONS (angstrom)
Si 1.4806511700 1.4188066100 1.4228572300
Si 2.7529027500 2.7627437000 16.3116705600
Si 4.0989581700 4.1094519200 1.3572982500
Si 2.7680313700 0.0037524500 2.7659424200
Si 4.1025159300 1.3806896700 4.1014714500
Si 0.0015040500 2.7177332000 2.6974311500
Si 1.3601836200 4.0732215700 4.0655348600
Si 16.3170561600 0.0114247800 5.4458459100
Si 1.3575659000 1.3716990000 6.7985925200
Si 2.7172925600 2.7281127100 5.4394321600
Si 4.0747719700 4.0900311400 6.7977602000
Si 2.7145181700 0.0032104300 8.1516981700
Si 4.0710999700 1.3557119500 9.5124415700
Si 16.3149998400 2.7330576600 8.1525631300
Si 1.3546837900 4.0826708300 9.5173865200
Si 0.0041246900 0.0013646100 10.8650902600
Si 1.3288851700 1.3714786800 12.2337488400
Si 2.6952605900 2.7016253800 10.8703289700
Si 4.0591211100 4.0695822100 12.2093994400
Si 2.7487738000 0.0872839700 13.5820564200
Si 4.1130586300 1.4044580900 14.9661373900
Si 0.0052421400 2.7151220100 13.6294006700
Si 1.3671702100 4.0934909800 14.9641137100
Si 0.0069603700 5.4443607900 0.0024314600
Si 1.3513838900 6.7997512400 1.3729784900
Si 2.6968436300 8.1677733500 0.0245414900
Si 4.0768609200 9.5170927600 1.3714068700
Si 2.7194304800 5.4434468700 2.7189898400
Si 4.0752452400 6.8025745900 4.0781828400
Si 0.0065681400 8.1657659900 2.7283248700
Si 1.3657911700 9.5148732400 4.0926749800
Si 0.0001090700 5.4307662500 5.4302276900
Si 1.3531497100 6.7936312500 6.7874949300
Si 2.7232493500 8.1576712800 5.4463518300
Si 4.0751146900 9.5347673000 6.7970258000
Si 2.7077290600 5.4432673500 8.1546031200
Si 4.0551879900 6.8261243200 9.4970681500
Si 16.3196510300 8.1475365700 8.1537055300
Si 1.3591130300 9.5115602900 9.5014582200
Si 16.3167950400 5.4329694500 10.8863225500
Si 1.3531888800 6.8000286800 12.2391997200
Si 2.7058522600 8.1670552700 10.8815244700
Si 4.0391291300 9.5628539800 12.2312845300
Si 2.7321600600 5.4507745400 13.5911303300
Si 4.0613732600 6.8340884700 14.9709681000
Si 16.3185086400 8.1628773500 13.5979520800
Si 1.3533129100 9.5193775600 14.9640484300
Si 16.3128456000 10.8810675100 16.3160443200
Si 1.3629874000 12.2160253500 1.3682652800
Si 2.7504710800 13.5886660100 0.0736698500
Si 4.1056004000 14.9826695200 1.3847125500
Si 2.7223354400 10.8734950400 2.7324701400
Si 4.0763060400 12.2478329800 4.0801575600
Si 0.0643178500 13.5823012200 2.7605568200
Si 1.3804579300 14.9859988000 4.1039357700
Si 0.0091039000 10.8632787400 5.4593588500
Si 1.3602097400 12.2415497900 6.8030968300
Si 2.7228250300 13.6012813500 5.4491588700
Si 4.0810551600 14.9640484300 6.8017422700
Si 2.7206381600 10.8887542200 8.1634975100
Si 4.0617975800 12.2653769600 9.5225925900
Si 0.0029779900 13.6098493400 8.1530200900
Si 1.3630804200 14.9629386700 9.5120825300
Si 16.3138248000 10.8626585800 10.8502064400
Si 1.3203237100 12.2391181200 12.2211987800
Si 2.7076148200 13.6233296400 10.9004882900
Si 4.0835684300 15.0114742800 12.2332429200
Si 2.6925841200 10.9134953100 13.6181235700
Si 4.0876321100 12.2412233900 14.9945178300
Si 16.2447586600 13.5793309800 13.5581802900
Si 1.6315717900 14.6936427200 14.6811742600
Si 5.4402971200 0.0138559200 16.3197489500
Si 6.7940718900 1.3565165200 1.3751180300
Si 8.1645093500 2.7014458600 0.0271567700
Si 9.5131922900 4.0795863600 1.3760727500
Si 8.1556639200 0.0005931200 2.7265296700
Si 9.5169785200 1.3548731000 4.0776279600
Si 5.4389588800 2.7329760600 2.7175863200
Si 6.8008610000 4.0860164300 4.0760122800
Si 5.4471351900 16.3166155200 5.4449319900
Si 6.7987067600 1.3594035300 6.7933701300
Si 8.1510290500 2.7062929000 5.4187547500
Si 9.4895446400 4.0749025300 6.7829253400
Si 8.1575407200 0.0088472600 8.1539176800
Si 9.5184473200 1.3638327700 9.5075292500
Si 5.4240750600 2.7102749700 8.1448764200
Si 6.7842146200 4.0514344000 9.5048364600
Si 5.4571882900 0.0100545400 10.8547760300
Si 6.8024113900 1.3606177300 12.2322637300
Si 8.1602824800 2.7160032800 10.8729728100
Si 9.5309647400 4.0440414500 12.2501830600
Si 8.1585525600 0.0064023800 13.5981642400
Si 9.5161135600 1.3559143200 14.9683405800
Si 5.4606970900 2.7508790800 13.5809303400
Si 6.8345943900 4.0731073300 14.9742157700
Si 5.4530919800 5.4588692500 16.2970152200
Si 6.7952142800 6.8039128300 1.3652673000
Si 8.1570184800 8.1613759100 0.0135084200
Si 9.5139593200 9.5177129200 1.3713987100
Si 8.1582424800 5.4508887800 2.7226128800
Si 9.5250079500 6.8069157100 4.0760938800
Si 5.4391873600 8.1618655100 2.7245059900
Si 6.7979397200 9.5304098600 4.0752615600
Si 5.4342913700 5.4420759900 5.4313048100
Si 6.7769032700 6.8282459200 6.7761525500
Si 8.1604293600 8.1702213400 5.4254785800
Si 9.5043795000 9.5573867800 6.7683352800
Si 8.0894700900 5.4189179500 8.1154515000
Si 9.8042264400 6.5244005800 9.2329619500
Si 5.4249237000 8.1734853400 8.1471448900
Si 6.7361686100 9.5982193700 9.4684592300
Si 5.3910760700 5.4144952300 10.8097492100
Si 6.5109692400 6.5233397800 12.5208988500
Si 9.7956094900 9.8021864500 12.5152847700
Si 8.2265089400 5.4093054800 13.6379686600
Si 9.5313564200 6.7918523700 15.0055664500
Si 5.3872571900 8.2368394900 13.6241619600
Si 6.7934843700 9.5252037900 14.9867821600
Si 5.4481959900 10.8744252800 0.0230627400
Si 6.8058385900 12.2472781000 1.3689654000
Si 8.1545052000 13.6268874000 0.0218033300
Si 9.5206342000 14.9756192900 1.3697487600
Si 8.1656191100 10.8903699000 2.7251914300
Si 9.5344245800 12.2611500900 4.0652574200
Si 5.4500891000 13.6006285500 2.7300547800
Si 6.8062792300 14.9596420300 4.0872730700
Si 5.4365108800 10.8857023900 5.4356785600
Si 6.7894370100 12.2515865800 6.7890126900
Si 8.1663861500 13.6019015100 5.4375553600
Si 9.5108095700 14.9659415500 6.8020686700
Si 8.1543093600 10.9067062000 8.1368796300
Si 9.5011807800 12.2693263900 9.4915683200
Si 5.4366088000 13.6042842300 8.1588789600
Si 6.8040597100 14.9650113100 9.5039551800
Si 5.4074286800 10.9148009100 10.8836787100
Si 6.7574335400 12.2834758100 12.2301747700
Si 8.1505394500 13.6123626200 10.8741804800
Si 9.5101567700 14.9666759400 12.2327370000
Si 8.0798086700 10.9262901700 13.6171117300
Si 9.4775984100 12.2499382600 14.9688465000
Si 5.4128632400 13.6345577900 13.6194454900
Si 6.8027051500 14.9744932100 14.9666106600
Si 10.8778198400 0.0014010200 16.3189329500
Si 12.2150461500 1.3904082200 1.3447024900
Si 13.5769809100 2.7514013200 0.0055102100
Si 14.9662189900 4.0827850700 1.3484919900
Si 13.5689841200 0.0828265000 2.7425232500
Si 14.9760599300 1.3876354600 4.0908961000
Si 10.8729891300 2.7286349500 2.7341184600
Si 12.2359357200 4.0899821800 4.0895741900
Si 10.8605369800 0.0138137300 5.4612846100
Si 12.2284938100 1.3777732900 6.8070136300
Si 13.5955040800 2.7314746200 5.4463191900
Si 14.9473857300 4.0976362500 6.8049899500
Si 13.5948186400 0.0115256700 8.1534933700
Si 14.9709844200 1.3566177100 9.5068764500
Si 10.8725974500 2.7486106000 8.1669247100
Si 12.2604156900 4.0715242900 9.5455874400
Si 10.8665590500 16.3194715100 10.8646659400
Si 12.2242016600 1.3653880600 12.2132346300
Si 13.6287152300 2.7010052300 10.8831075100
Si 14.9720941800 4.0637886200 12.2547689700
Si 13.5491553400 16.3115563200 13.5546225400
Si 14.8431990000 1.4069991100 14.8939541200
Si 10.8888684600 2.7028983400 13.6117587800
Si 12.2306970100 4.0936052200 14.9558231600
Si 10.8874323100 5.4328388900 0.0271055200
Si 12.2516518600 6.8002408400 1.3720923100
Si 13.6251738000 8.1568716000 0.0260089800
Si 14.9705601000 9.5272764300 1.3749940000
Si 13.6065363900 5.4333774500 2.7228903100
Si 14.9722084200 6.7946267600 4.0699738900
Si 10.8876934200 8.1651621500 2.7209156000
Si 12.2558624100 9.5358117700 4.0619771000
Si 10.8717651300 5.4539079800 5.4546097400
Si 12.2508032200 6.8393761400 6.7777029500
Si 13.6225626000 8.1693563800 5.4081467600
Si 14.9637873100 9.5094876500 6.7994574800
Si 13.5792493800 5.4587713300 8.1627467900
Si 14.9660394700 6.7927336500 9.5183983600
Si 10.9066246000 8.2385367700 8.1094294300
Si 12.2734716700 9.5387983300 9.5008707000
Si 10.9223897000 5.4036261300 10.9434751100
Si 12.2855484500 6.7903182900 12.2493344200
Si 13.6103879000 8.1611800700 10.8690886500
Si 14.9631018700 9.5180719600 12.2301421300
Si 13.6245862800 5.4315332900 13.6139130100
Si 14.9717025000 6.8041249900 14.9695809000
Si 10.9168735400 8.0929299300 13.6366467400
Si 12.2475229000 9.4859379200 14.9757335300
Si 10.8485744400 10.8560653100 16.2960686700
Si 12.2193219800 12.2349075600 1.3165342100
Si 13.5587514900 13.5818279400 16.2394057000
Si 14.6759681900 14.6883550500 1.6355881400
Si 13.6081031000 10.9116348300 2.7037959400
Si 14.9896218300 12.2349565200 4.0953025000
Si 10.9010268500 13.6215344400 2.7061786600
Si 12.2303053300 15.0050605300 4.0881217100
Si 10.8924425400 10.8969631700 5.4182161900
Si 12.2467558700 12.2576249700 6.7810811800
Si 13.6103715800 13.6223341200 5.4191790700
Si 14.9570961200 14.9696788200 6.8007304400
Si 13.6123136600 10.8975506900 8.1364553100
Si 14.9675735400 12.2470169900 9.5053260600
Si 10.8848863900 13.6131623000 8.1462636200
Si 12.2386285200 14.9693034600 9.5094550100
Si 10.9030178800 10.9243317700 10.8043473000
Si 12.2471312200 12.2575270500 12.2033120900
Si 13.6142557300 13.6187110900 10.8573056300
Si 14.9438279800 14.9897687100 12.2136589500
Si 13.5678906800 10.8581379500 13.5767687500
Si 14.9359127900 12.2049767200 14.9374795000
Si 10.8506634000 13.5755121100 13.5789882600
Si 12.1994442500 14.9657620300 14.9230200000
H 2.5144678800 13.8106993000 13.7967294000
H 0.7479543600 0.4430661700 0.5170576900
H 5.6396456400 5.6388622800 13.4066656200
H 15.5742360600 0.4317466300 15.7992395900
H 13.7902014100 13.8027514700 2.5139619600
H 10.6881001000 5.6407227600 8.3582764400
H 10.6807724300 10.6749298800 13.3965309200
H 7.6339142400 8.7279239300 10.3676899800
