&CONTROL
  dt = 30.D0,
  prefix='interstitialOptimizeIteration',
  pseudo_dir = './',
  outdir = './'
  wf_collect = .true.,
  verbosity = 'high',
  tprnfor = .true.,
  tstress = .true.,
/

&SYSTEM
  ibrav = 0, nat = 224, ntyp = 2,
  ecutwfc	= 42.D0,
  degauss	= 0.05D0,
  occupations	= "smearing",
  smearing	= "marzari-vanderbilt",
/
&ELECTRONS
  electron_maxstep = 200,
  conv_thr = 1.D-8,
  mixing_beta = 0.3D0,
  scf_must_converge=.false.,
/
&IONS
/
ATOMIC_SPECIES
Si  28.08  Si.pbe-hgh.UPF
H  1.00784  H.pbe-hgh.UPF
CELL_PARAMETERS { angstrom }
   16.3852778749  0.0  0.0
   0.0  16.3852778749  0.0
   0.0  0.0  16.3852778749
K_POINTS {automatic}
2 2 2  0 0 0
ATOMIC_POSITIONS (angstrom)
Si 14.8204346800 14.7920390000 15.2623128600
Si 16.0768250200 0.3955979600 0.4305887200
Si 1.4956219500 1.4720107600 1.4495793200
Si 2.7832852300 2.7672932000 16.3578980800
Si 4.1173909400 4.1176203300 1.3688310300
Si 2.7743716400 16.3734640900 2.7527594500
Si 4.1180627300 1.3778101600 4.1035781500
Si 0.0344235000 2.7651631100 2.7771571300
Si 1.3917605900 4.1279758300 4.1454425300
Si 0.0143792100 0.0019598100 5.4601972300
Si 1.3748477000 1.3730043600 6.8178649700
Si 2.7629019400 2.7416174600 5.4830874600
Si 4.1423129400 4.0779024200 6.8592050200
Si 2.7232331800 16.3728414500 8.1628668900
Si 4.0790657700 1.3377530700 9.5525350700
Si 0.0120321800 2.7500067300 8.1706171200
Si 1.3656899700 4.1222901300 9.5366085800
Si 0.0356773000 0.0278872500 10.8685678200
Si 1.4341525800 1.3935826300 12.1847316500
Si 2.7609684800 2.7807946600 10.8656184700
Si 4.1127375200 4.1059867800 12.2764728200
Si 2.7292465800 0.0425384800 13.6130035600
Si 4.1086903500 1.3653999500 15.0011315300
Si 0.1215466500 2.7842191900 13.5295041800
Si 1.3843052900 4.1144252000 15.0154686400
Si 0.0175779600 5.4834479400 0.0001130300
Si 1.3919998100 6.8295149000 1.3700582900
Si 2.7562495200 8.1840530500 16.3849665500
Si 4.1166208300 9.5404427400 1.3721900100
Si 2.7425514300 5.4639986100 2.7427644300
Si 4.1081332500 6.8237800500 4.1089689000
Si 0.0184083700 8.1860520600 2.7361939400
Si 1.3838268400 9.5557138200 4.0958279100
Si 0.0165037400 5.4905427600 5.4802528100
Si 1.3937530400 6.8401653300 6.8348237300
Si 2.7489908400 8.2002417100 5.4630646500
Si 4.1114922400 9.5654794400 6.8285481700
Si 2.7609193200 5.4654569000 8.1854785700
Si 4.1073959200 6.8432457600 9.5541899900
Si 0.0204127800 8.1965058600 8.1930321800
Si 1.3816754500 9.5623826300 9.5518468900
Si 0.0080620200 5.4786142800 10.9166258400
Si 1.3801073800 6.8317269100 12.2804216800
Si 2.7423548000 8.2011429000 10.9180022100
Si 4.1244693800 9.5498315000 12.2778328000
Si 2.7457793300 5.4726008800 13.6435621000
Si 4.1154738600 6.8288922600 15.0125520700
Si 0.0121323000 8.1862978300 13.6463803700
Si 1.3959879900 9.5304313300 15.0074890100
Si 0.0601012000 10.8754496400 0.0255027000
Si 1.4027862400 12.2683621100 1.3567845700
Si 2.8337682700 13.6089072400 0.0177082300
Si 4.1447871200 15.0312640500 1.3778216300
Si 2.7590677900 10.9124639800 2.7315569000
Si 4.1119674100 12.2843705300 4.0975483600
Si 0.0544458200 13.6166247000 2.7257237500
Si 1.3792143800 15.0247263300 4.0957132100
Si 0.0189605500 10.9164619900 5.4619340700
Si 1.3857340800 12.2848620900 6.8198148200
Si 2.7417321600 13.6510829400 5.4503332900
Si 4.1087886700 15.0190078600 6.8161281300
Si 2.7467624400 10.9281610800 8.1912461900
Si 4.1237320400 12.2918422200 9.5429660700
Si 0.0173865800 13.6496410400 8.1749264500
Si 1.3821178500 15.0118311100 9.5359859400
Si 0.0164468900 10.9201322900 10.9116611000
Si 1.4583831300 12.2508298600 12.2324292000
Si 2.7702097700 13.6630441900 10.8977500000
Si 4.1083626500 15.0046379800 12.3044261100
Si 2.7647534800 10.8996670800 13.6514761900
Si 4.1600418100 12.2289719000 15.0046707500
Si 0.1022015300 13.6451842400 13.5785453200
Si 1.2364003000 15.1962474200 15.0249557200
Si 5.4783848900 0.0079221200 16.3713176200
Si 6.8296132100 1.3838170000 1.3555491200
Si 8.1888539400 2.7512520100 16.3746602100
Si 9.5615633600 4.1058065400 1.3532207800
Si 8.1706990500 0.0016266600 2.7224303000
Si 9.5057714900 1.4023569500 4.0696606200
Si 5.4673412100 2.7417485500 2.7265102400
Si 6.8282040800 4.1157851800 4.0852102500
Si 5.4633595900 16.3735951700 5.4395353900
Si 6.8625148500 1.3442514700 6.7709211500
Si 8.1919343700 2.7669818700 5.4455979500
Si 9.5636115200 4.1065766500 6.8309731900
Si 8.2068449700 0.0017895200 8.1453018700
Si 9.5318732400 1.3870465400 9.5303821800
Si 5.6035192500 2.6181544000 8.3002410600
Si 6.8597621200 4.1652687200 9.5796199400
Si 5.4501039000 0.0121830800 10.9189034000
Si 6.8275814400 1.3879051300 12.2671496000
Si 8.1991438900 2.7611978700 10.9168716200
Si 9.5657907600 4.1196521000 12.2909901800
Si 8.1827422300 0.0120054100 13.6324692700
Si 9.5366085800 1.3851966400 15.0021801800
Si 5.4697334600 2.7399134000 13.6437914900
Si 6.8268932600 4.1109187500 15.0121915900
Si 5.4738461600 5.4734201500 16.3846060800
Si 6.8324478700 6.8256479700 1.3682395200
Si 8.1761389600 8.1823653700 16.3790023100
Si 9.5230251900 9.5139641300 1.3805366700
Si 8.2041086300 5.4676197600 2.7253796500
Si 9.5654466700 6.8239275200 4.1001700100
Si 5.4736331600 8.1823981400 2.7428135900
Si 6.8297606800 9.5558121300 4.1031849000
Si 5.4705527200 5.4591158000 5.4769757500
Si 6.8370521300 6.8410173700 6.8258446000
Si 8.2037809300 8.1975545200 5.4605085500
Si 9.5657088400 9.5566805500 6.8341027800
Si 8.2158896500 5.4953108800 8.1866910800
Si 9.5747043600 6.8426395100 9.5678389200
Si 5.4757304700 8.2049442800 8.1925406300
Si 6.8436881700 9.5659546200 9.5570410300
Si 5.4665874900 5.4993088900 10.9337484600
Si 6.8459984900 6.8455233200 12.2905150100
Si 8.2099090200 8.2100564900 10.9276367500
Si 9.5758841000 9.5763920400 12.2915636700
Si 8.1984393300 5.4754519200 13.6530164000
Si 9.5536165000 6.8546007600 15.0068008300
Si 5.4803675100 8.1984557100 13.6550154100
Si 6.8456380100 9.5627103300 15.0108480000
Si 5.4941311400 10.8965702600 0.0184881600
Si 6.8410992900 12.2883030000 1.3640235900
Si 8.1946051700 13.6583252300 16.3839179000
Si 9.5459973500 15.0284294000 1.3702336100
Si 8.1866747000 10.9128736100 2.7331298900
Si 9.5328072000 12.2657896200 4.1252231000
Si 5.4822845800 13.6429886100 2.7349158900
Si 6.8370685100 15.0105366800 4.0980399200
Si 5.4759926400 10.9290458800 5.4664564000
Si 6.8408207400 12.2951848100 6.8310551200
Si 8.2042561000 13.6623724000 5.4753044500
Si 9.6031819700 15.0337382300 6.7974325300
Si 8.2065828100 10.9309138100 8.1921637600
Si 9.5705916500 12.3063595700 9.5463578200
Si 5.4746982000 13.6623887800 8.1818410400
Si 6.8250908800 15.0454373200 9.5349045200
Si 5.4772379200 10.9287509500 10.9184609900
Si 6.8482268900 12.2969708100 12.2738020200
Si 8.1896404300 13.6755133900 10.8939322300
Si 9.5487992300 15.0388340500 12.2617424600
Si 8.2089422900 10.9409252100 13.6566703200
Si 9.5754908500 12.2961351600 15.0350162800
Si 5.4834643200 13.6446435300 13.6551464900
Si 6.8386742700 15.0229075600 15.0131255500
Si 10.8924084000 0.0558079300 0.0236952400
Si 12.3071624500 1.3502976400 1.3871661600
Si 13.5614554700 2.9167597000 0.1320889300
Si 15.0736691500 4.1826535000 1.4470985900
Si 13.6499687400 16.3133792800 2.7326711000
Si 15.0344428000 1.3395308800 4.0774436300
Si 10.9174614900 2.7332118200 2.7249208700
Si 12.2829613900 4.0892246400 4.1119182500
Si 11.0364677700 0.1207996400 5.3501209300
Si 12.3196644200 1.4053620100 6.8658902200
Si 13.6749562900 2.7225450000 5.4532498700
Si 15.0311165800 4.1067732800 6.8088858400
Si 13.6708272000 0.0052567700 8.1909512500
Si 15.0368186600 1.3846313500 9.5306935000
Si 10.9245399300 2.7536934100 8.2027322700
Si 12.2975934500 4.1305319300 9.5436706400
Si 10.8982415600 0.0242788900 10.8869848800
Si 12.2330846100 1.4679734300 12.2023130600
Si 13.6740387200 2.7659004500 10.8795623400
Si 15.0188440100 4.1139828000 12.2739658800
Si 13.5831331900 0.0402797600 13.5087112600
Si 15.2756340900 1.1670004500 14.7252034500
Si 10.9141516700 2.7643602300 13.6626345600
Si 12.2354768600 4.1739365300 15.0126503800
Si 10.8964064100 5.5128431300 0.0088307600
Si 12.2986257200 6.8360198600 1.3722670200
Si 13.6617169900 8.1873628800 16.3842128300
Si 15.0310346600 9.5335117700 1.3707120600
Si 13.6503783700 5.4968674800 2.7759937800
Si 15.0335252200 6.8501275800 4.1222573600
Si 10.9286854100 8.1880510600 2.7376358400
Si 12.2913178900 9.5337083900 4.1259112800
Si 10.9278006000 5.4673248200 5.4690944300
Si 12.2931530400 6.8294657400 6.8354136000
Si 13.6628967300 8.1925734000 5.4881996700
Si 15.0389159800 9.5565822400 6.8311042700
Si 13.6714990000 5.4725025700 8.1775153300
Si 15.0327551100 6.8334309800 9.5461775900
Si 10.9350265100 8.1998976200 8.1989964300
Si 12.2987895700 9.5644307900 9.5593185800
Si 10.9385001900 5.4765825100 10.9301928500
Si 12.3045080300 6.8422790300 12.2895318900
Si 13.6663048600 8.1922948500 10.9094818600
Si 15.0421602600 9.5430807700 12.2660845600
Si 13.6639945400 5.4756485500 13.6587676400
Si 15.0322799400 6.8326608700 15.0196960500
Si 10.9423671100 8.2109740600 13.6579483700
Si 12.3009196600 9.5737376200 15.0376379300
Si 10.8831507200 10.8783334500 0.0335849000
Si 12.1611860100 12.1439978500 1.5561147600
Si 13.2223621500 13.1918855300 16.1574078200
Si 14.9738172700 14.8767017300 1.3607334200
Si 13.6943236900 10.8681418100 2.7939356600
Si 15.0465842900 12.2861729100 4.1037420000
Si 10.8593101400 13.6600948400 2.7862018100
Si 12.3063595700 14.9482398500 4.1070354400
Si 10.9310940400 10.9192474900 5.4717488500
Si 12.3019847000 12.2758829500 6.8374289900
Si 13.6794130900 13.6280780100 5.4842016600
Si 15.0340987100 15.0257094400 6.8255168900
Si 13.6703356400 10.9129883100 8.1913936600
Si 15.0437004800 12.2797826500 9.5357565500
Si 10.9415806200 13.6666161800 8.1753524700
Si 12.2911212600 15.0398499400 9.5475211800
Si 10.9359604700 10.9411709900 10.9159540500
Si 12.3161415800 12.3088337500 12.2682638000
Si 13.6686971100 13.6510337900 10.8692560000
Si 15.0480425800 15.0229403300 12.2103254600
Si 13.6673043700 10.9153477900 13.6245224100
Si 15.1336392700 12.2121606100 14.9730799300
Si 10.9183135300 13.6565720100 13.6219990700
Si 12.2227291100 15.0972475700 14.9878594500
H 2.7827936700 14.6539602600 15.1209079100
H 14.6953822400 2.5802552500 15.3922808800
H 14.0062174500 14.0673181600 14.0507198700
H 15.0517456500 1.2961066100 1.1300434600
H 11.9603352700 0.9910537000 4.3528637600
H 12.4148628800 12.3849433600 15.1106343400
H 6.5352517000 1.7021518200 9.2247803600
