&CONTROL
  dt = 30.D0,
  prefix='interstitialOptimizeIteration',
  pseudo_dir = './',
  outdir = './'
  wf_collect = .true.,
  verbosity = 'high',
  tprnfor = .true.,
  tstress = .true.,
/

&SYSTEM
  ibrav = 0, nat = 222, ntyp = 2,
  ecutwfc	= 42.D0,
  degauss	= 0.05D0,
  occupations	= "smearing",
  smearing	= "marzari-vanderbilt",
/
&ELECTRONS
  electron_maxstep = 200,
  conv_thr = 1.D-8,
  mixing_beta = 0.3D0,
  scf_must_converge=.false.,
/
&IONS
/
ATOMIC_SPECIES
Si  28.08  Si.pbe-hgh.UPF
H  1.00784  H.pbe-hgh.UPF
CELL_PARAMETERS { angstrom }
   16.3852778749  0.0  0.0
   0.0  16.3852778749  0.0
   0.0  0.0  16.3852778749
K_POINTS {automatic}
2 2 2  0 0 0
ATOMIC_POSITIONS (angstrom)
Si 14.7909575700 15.0397680100 15.0042119600
Si 0.0566984700 0.0419423800 0.0283863500
Si 1.4199023000 1.4124781300 1.4206330900
Si 2.7516780300 2.7349486600 16.3860971400
Si 4.1098537100 4.1068879700 1.3507728100
Si 2.7448125900 16.3694988500 2.7431576800
Si 4.1056590800 1.3471778800 4.1031357400
Si 16.3750206900 2.7408309700 2.7436164700
Si 1.3483264900 4.1062161800 4.1058229300
Si 0.0098791100 0.0052721800 5.4705691100
Si 1.3866418300 1.3788145800 6.8138178000
Si 2.7677192100 2.7660479100 5.4280493100
Si 4.0993015900 4.1002519400 6.8429672100
Si 2.7410931400 0.0080255900 8.1854294200
Si 4.1019723900 1.3678217000 9.5583354600
Si 0.0070180900 2.7320156900 8.1748445300
Si 1.3708677200 4.0882579100 9.5493399500
Si 0.0387418400 0.0263827600 10.8980940900
Si 1.4154815500 1.3373155900 12.2727533700
Si 2.7418796300 2.7384387200 10.9222459900
Si 4.1036109200 4.1003830200 12.2935790500
Si 2.7745682600 0.0014128200 13.6510829400
Si 4.1180627300 1.3727553000 15.0210068700
Si 0.1476505200 2.8773367200 13.5042544700
Si 1.3894846700 4.1262553700 15.0602004500
Si 0.0029564800 5.4758124000 0.0210382100
Si 1.3858684400 6.8203227600 1.3842184400
Si 2.7406343500 8.1830863200 0.0040925500
Si 4.1003010900 9.5577619800 1.3632747800
Si 2.7664247800 5.4302285600 2.7661626100
Si 4.0972206600 6.8439667200 4.1021690100
Si 0.0081263100 8.1885426200 2.7329168800
Si 1.3683017800 9.5590564200 4.0963522400
Si 16.3796741100 5.4732399100 5.4703888700
Si 1.3560587100 6.8398867800 6.8348565000
Si 2.7265921600 8.1988161900 5.4687503400
Si 4.1026769600 9.5557138200 6.8279910700
Si 2.7276080500 5.4716013800 8.1925734000
Si 4.1010220400 6.8264508500 9.5571065700
Si 16.3598643100 8.2136940200 8.2200351200
Si 1.3916934100 9.5485534500 9.5455057900
Si 0.0324272800 5.4412722300 10.9506908400
Si 1.3795044000 6.8377403100 12.2987895700
Si 2.7499903400 8.1955555200 10.9263095400
Si 4.1159654200 9.5573523500 12.2919077600
Si 2.7346373400 5.4623600900 13.6576534400
Si 4.1035617600 6.8296623700 15.0145346800
Si 0.0065641400 8.1939333700 13.6648138000
Si 1.3816197400 9.5509457000 15.0250212600
Si 0.0441871600 10.9038617100 0.0357649700
Si 1.3884114400 12.2938248300 1.3786458100
Si 2.7669818700 13.6424151300 0.0174324600
Si 4.1182757400 15.0214984300 1.3714510400
Si 2.7431249100 10.9208040900 2.7383076400
Si 4.1030865900 12.2889911800 4.1033815200
Si 0.0127225300 13.6413828600 2.7392907600
Si 1.3659193700 15.0176315000 4.1042171700
Si 0.0085335700 10.9235404300 5.4624911700
Si 1.3737253100 12.2841739100 6.8307765700
Si 2.7350961200 13.6531802600 5.4663908600
Si 4.1018740800 15.0184343800 6.8305144000
Si 2.7491055400 10.9267683300 8.1920490700
Si 4.1138844900 12.2900398300 9.5558285200
Si 0.0095688900 13.6611926600 8.1843152200
Si 1.3823980400 15.0197779700 9.5468002300
Si 16.3454452600 10.8700588800 10.8680926500
Si 1.4059092700 12.2218115400 12.2223686400
Si 2.7467788300 13.6507880100 10.9125950600
Si 4.1140647200 15.0114542500 12.2828467000
Si 2.7462545000 10.9129063800 13.6523446100
Si 4.1093949200 12.2854683400 15.0148296200
Si 0.0973829500 13.6281763200 13.6296673800
Si 1.4307903200 15.0254636600 15.0332302900
Si 5.4780244100 0.0094276100 0.0085716100
Si 6.8194051800 1.3839923300 1.3849246500
Si 8.1873792600 2.7357515400 0.0084804600
Si 9.5608915700 4.0991541200 1.3653508000
Si 8.1876742000 0.0060725200 2.7355385300
Si 9.5628250300 1.3642644500 4.0967454900
Si 5.4326371900 2.7648681700 2.7661953800
Si 6.8448515200 4.0987117200 4.0992032800
Si 5.4691272000 16.3769869200 5.4678327700
Si 6.8235342700 1.3717771000 6.8218138200
Si 8.2017655400 2.7304590900 5.4629008000
Si 9.5563200700 4.1030702000 6.8267621700
Si 8.1834795700 0.0006831000 8.1784656700
Si 9.5355763100 1.3726143900 9.5341999500
Si 5.4648342600 2.7307868000 8.1994552100
Si 6.8284990100 4.1003994000 9.5563528400
Si 5.4678983100 0.0013565600 10.9177400400
Si 6.8293346600 1.3691030200 12.2845835400
Si 8.1911970300 2.7363741800 10.9194277300
Si 9.5394268500 4.1226670000 12.2834529500
Si 8.1876414300 0.0037365600 13.6545730100
Si 9.5450306200 1.3741120000 15.0205644700
Si 5.4768610600 2.7392252100 13.6550154100
Si 6.8367244200 4.1051839000 15.0215475800
Si 5.4703724900 5.4711753600 16.3765117500
Si 6.8243699200 6.8238455900 1.3726406100
Si 8.1858226600 8.1793832500 0.0011275900
Si 9.5375425500 9.5366249700 1.3721785400
Si 8.2012739800 5.4644082400 2.7318682200
Si 9.5580077600 6.8284990100 4.1038075400
Si 5.4637856000 8.2000450800 2.7325072500
Si 6.8283515500 9.5577455900 4.1011203600
Si 5.4374216900 5.4364385800 5.4362747200
Si 6.8172423300 6.8178813500 6.8175700300
Si 8.1885917700 8.1905580100 5.4670135000
Si 9.5529447100 9.5597446000 6.8299081500
Si 8.1881329900 5.4665874900 8.1892635700
Si 9.5511095600 6.8300392300 9.5588597900
Si 5.4679146900 8.1893782700 8.1909512500
Si 6.8310223500 9.5582699200 9.5577947500
Si 5.4662597800 5.4661778500 10.9228686300
Si 6.8255660500 6.8380844000 12.2872379500
Si 8.1958996100 8.2001597800 10.9266536300
Si 9.5609898800 9.5645291000 12.2963154000
Si 8.1869532500 5.4806952100 13.6537373600
Si 9.5655449900 6.8329558100 15.0171071700
Si 5.4701922500 8.1955063600 13.6588659500
Si 6.8345288000 9.5571229500 15.0239398300
Si 5.4677180700 10.9206566200 16.3854417300
Si 6.8282040800 12.2856321900 1.3717377800
Si 8.1882313000 13.6542289100 0.0054263000
Si 9.5480618900 15.0201876000 1.3741759100
Si 8.1912134200 10.9198537400 2.7365708000
Si 9.5407049000 12.2836004200 4.1216511100
Si 5.4717160800 13.6531966400 2.7409948200
Si 6.8353808300 15.0188931700 4.1041188600
Si 5.4659156900 10.9223934600 5.4662597800
Si 6.8253366500 12.2866153100 6.8362656300
Si 8.1871826400 13.6533768800 5.4797776400
Si 9.5639392300 15.0176970400 6.8331524300
Si 8.1962928500 10.9270468800 8.1992913600
Si 9.5629233400 12.2962170800 9.5633493600
Si 5.4692255200 13.6570963400 8.1947690200
Si 6.8340863900 15.0225307000 9.5567788600
Si 5.4750259000 10.9268830300 10.9263914700
Si 6.8444418900 12.2904822400 12.2908918700
Si 8.2036498400 13.6650268100 10.9276859100
Si 9.5666591800 15.0393419900 12.2919569100
Si 8.2026011900 10.9271451900 13.6652889800
Si 9.5659546200 12.2917766700 15.0388176700
Si 5.4764678100 13.6520824400 13.6537865100
Si 6.8316286000 15.0227600900 15.0238415200
Si 10.9060245700 0.0499215200 0.0485910300
Si 12.3052781400 1.3894764800 1.3837105000
Si 13.6635193700 2.7280340700 16.3724482000
Si 15.0200565200 4.0961720000 1.3630322800
Si 13.6492641800 0.0040532800 2.7396348500
Si 15.0243003100 1.3624096400 4.1043482500
Si 10.9249987200 2.7431413000 2.7397987000
Si 12.2890731000 4.1043154800 4.1038730800
Si 10.9247365600 0.0037696100 5.4694057500
Si 12.2867627800 1.3752999400 6.8303341600
Si 13.6538848200 2.7324908600 5.4610820300
Si 15.0174840300 4.0989083400 6.8238128200
Si 13.6564573100 0.0093937600 8.1891816400
Si 15.0271185800 1.3757472600 9.5481765900
Si 10.9172976400 2.7390285900 8.1887884000
Si 12.2783079800 4.1255999600 9.5363791900
Si 10.8996834700 0.0240499800 10.9000603300
Si 12.1849774300 1.5206111400 12.1819789300
Si 13.6636012900 2.7805980400 10.8764327600
Si 14.9750133900 4.1361029200 12.2778655700
Si 13.4622262300 16.3741031200 13.4170847900
Si 15.0624943900 1.3999614200 14.9727358400
Si 10.8853299600 2.7833507700 13.6737765500
Si 12.2911212600 4.1103288800 15.0250540300
Si 10.9246546300 5.4686192600 0.0049944900
Si 12.2871068700 6.8300064600 1.3752262000
Si 13.6563590000 8.1880019000 0.0081514300
Si 15.0233008100 9.5516994300 1.3721556000
Si 13.6544746900 5.4596401300 2.7310653500
Si 15.0209904800 6.8261231500 4.0930915700
Si 10.9192966400 8.1911478800 2.7384059500
Si 12.2813228700 9.5403608100 4.1225523000
Si 10.9258343700 5.4679310800 5.4691599800
Si 12.2899415200 6.8332999000 6.8352169800
Si 13.6547368600 8.1802352800 5.4648342600
Si 15.0228256300 9.5533379500 6.8137686500
Si 13.6607666400 5.4706346500 8.1861012100
Si 15.0409969100 6.8008734300 9.5671671300
Si 10.9121198900 8.1933926600 8.1937695200
Si 12.2699842500 9.5584993200 9.5608424100
Si 10.9231963400 5.4773690000 10.9258671400
Si 12.2965447900 6.8540764300 12.2736381700
Si 13.6921936000 8.2195271800 10.8835767400
Si 15.0216131200 9.5490777800 12.3013456800
Si 13.6359429400 5.4901167500 13.6597179800
Si 15.0258241400 6.8290233400 15.0258733000
Si 10.9340761600 8.2063370300 13.6570471800
Si 12.2959385300 9.5688712000 15.0395386200
Si 10.9029932900 10.9026164300 0.0241274900
Si 12.1942023400 12.1857147700 1.5158659600
Si 13.4858210300 13.4324541800 -0.0029093500
Si 15.0257258300 15.0162059800 1.3800139800
Si 13.6746122000 10.8854118900 2.7864475800
Si 15.0248082500 12.2937429100 4.1142449600
Si 10.8901472300 13.6720561000 2.7821546400
Si 12.2930383400 15.0212034900 4.1148676000
Si 10.9250642600 10.9263914700 5.4760090200
Si 12.2987076500 12.2781441200 6.8478500300
Si 13.6536882000 13.6513287200 5.4805641300
Si 15.0240053700 15.0263157000 6.8298262200
Si 13.6840009600 10.8886889400 8.2225748400
Si 15.0240709200 12.3033938400 9.5455877200
Si 10.9359277000 13.6588495600 8.2043380300
Si 12.2966594900 15.0406200500 9.5704769500
Si 10.9237042800 10.9346496500 10.9358949300
Si 12.3083258000 12.2962662400 12.2972821300
Si 13.6645188700 13.6619300000 10.9233765800
Si 15.0929382400 15.0113723300 12.2465533100
Si 13.6654036700 10.9236387400 13.6640764700
Si 15.0962644500 12.2476838900 15.0125029100
Si 10.9279480700 13.6570799500 13.6561951500
Si 12.2238105400 15.0523355200 15.0580212100
H 12.6002295300 15.2821390400 12.6259380300
H 12.6196624700 12.6512696700 15.2871037800
H 4.0758214900 4.0805568300 4.0849480900
H 1.0564457100 3.8951574100 12.4174189800
H 15.0140922800 9.5671835100 9.5549109400
