&CONTROL
  dt = 30.D0,
  prefix='interstitialOptimizeIteration',
  pseudo_dir = './',
  outdir = './'
  wf_collect = .true.,
  verbosity = 'high',
  tprnfor = .true.,
  tstress = .true.,
/

&SYSTEM
  ibrav = 0, nat = 224, ntyp = 2,
  ecutwfc	= 42.D0,
  degauss	= 0.05D0,
  occupations	= "smearing",
  smearing	= "marzari-vanderbilt",
/
&ELECTRONS
  electron_maxstep = 200,
  conv_thr = 1.D-8,
  mixing_beta = 0.3D0,
  scf_must_converge=.false.,
/
&IONS
/
ATOMIC_SPECIES
Si  28.08  Si.pbe-hgh.UPF
H  1.00784  H.pbe-hgh.UPF
CELL_PARAMETERS { angstrom }
   16.3199774331  0.0  0.0
   0.0  16.3199774331  0.0
   0.0  0.0  16.3199774331
K_POINTS {automatic}
2 2 2  0 0 0
ATOMIC_POSITIONS (angstrom)
Si 12.1655476600 15.2068570500 0.9132708300
Si 0.2412925000 0.1994546000 16.1454679100
Si 1.4765581200 1.4332563200 1.3740376500
Si 2.8056489200 2.7634128200 16.3132536000
Si 4.1342093200 4.1082279200 1.3646455000
Si 2.7554649900 16.3134984000 2.7089040900
Si 4.1055677600 1.3505874800 4.0757022000
Si 0.0380728800 2.7230208700 2.7045793000
Si 1.3938664200 4.0735479700 4.0691089300
Si 0.0392107000 16.3006545800 5.4660826800
Si 1.3933866200 1.3552158200 6.7966014800
Si 2.7469296400 2.7096058500 5.4298686500
Si 4.1090276000 4.0644740600 6.7916075700
Si 2.7464074000 16.3150977600 8.1451538600
Si 4.0992192900 1.3690551600 9.4816131300
Si 0.0215436800 2.7074026600 8.1463125800
Si 1.3584063800 4.0751146900 9.5102220500
Si 0.0086967700 16.2814459700 10.8684521700
Si 1.4131468500 1.2944500200 12.1916759400
Si 2.7350813400 2.7088714500 10.8552003500
Si 4.0762244400 4.0763713200 12.2298157300
Si 2.7704467300 16.2880882000 13.5771277900
Si 4.1032013700 1.3598017400 14.9385403000
Si 0.1613486000 2.8552616500 13.4518556400
Si 1.4174504200 4.1246131800 14.9998055000
Si 0.0099006000 5.4417985600 0.0140384400
Si 1.3847451900 6.7946594000 1.3569604300
Si 2.7513360400 8.1441583400 16.3173336000
Si 4.0968202600 9.4941795100 1.3664031700
Si 2.7488390800 5.4418964800 2.7161338400
Si 4.1184931900 6.7900571700 4.0715242900
Si 0.0312207700 8.1465247400 2.7236573500
Si 1.3837578300 9.5085737300 4.0796353200
Si 0.0173308400 5.4224104200 5.4151806700
Si 1.4127241600 6.7655772000 6.7361849300
Si 2.7636576200 8.1563330400 5.4164373100
Si 4.1084727200 9.5105321300 6.7930926900
Si 2.7374966900 5.4215944200 8.1415961000
Si 4.0836500300 6.7994738000 9.5026006200
Si 0.1374039300 8.0376052100 8.2539428300
Si 1.4165707800 9.5666891700 9.5179414000
Si 16.2894264400 5.4366740800 10.8557389100
Si 1.3599225000 6.7921787700 12.2111293500
Si 2.7393082100 8.1688015000 10.8732992000
Si 4.1149843900 9.5129474900 12.2367517200
Si 2.7367459800 5.4582980500 13.5865117700
Si 4.1076404000 6.8143086600 14.9375284600
Si 0.0443524800 8.1470796100 13.6055082300
Si 1.4114887400 9.5024374200 14.9529508400
Si 0.0332965100 10.8245351100 16.3124049600
Si 1.3885754900 12.2077021600 1.3375592400
Si 2.7553181100 13.5874420100 0.0094613600
Si 4.1120304700 14.9543543600 1.3548339300
Si 2.7388349300 10.8605696200 2.7133920900
Si 4.0868650700 12.2284938100 4.0715569300
Si 0.0899296000 13.4769884000 2.8264405700
Si 1.3938860100 14.9717351400 4.0801086000
Si 0.0412887300 10.8117728900 5.5077149400
Si 1.3910332800 12.2381062800 6.7995880400
Si 2.7424742900 13.5949655200 5.4320392100
Si 4.0987460100 14.9478590100 6.7940229300
Si 2.7702835300 10.8945967800 8.1418898600
Si 4.1302598900 12.2352339600 9.5058809400
Si 0.0308010200 13.5915872900 8.1578671200
Si 1.3928056300 14.9548439600 9.5059625400
Si 0.0445093100 10.9029689200 10.8628707400
Si 1.4335696700 12.2381552400 12.2031815300
Si 2.7745430400 13.6031581500 10.8491782800
Si 4.1312227700 14.9513678100 12.2140343100
Si 2.7591043400 10.8766611200 13.5920932100
Si 4.1072813600 12.2342874000 14.9580426800
Si 0.0407284600 13.5405057600 13.5717258700
Si 1.4252220000 14.9057371500 14.9228241700
Si 5.4480164700 0.0022852900 16.3076395300
Si 6.8003224400 1.3627703400 1.3487041500
Si 8.1376140300 2.7633801800 0.0124539100
Si 9.5492920800 4.0649963000 1.3644513000
Si 8.1449090600 0.0372257100 2.7580598700
Si 9.5534373500 1.3476384600 4.1004432900
Si 5.4611540500 2.7214215200 2.7216663200
Si 6.8267771200 4.0742334100 4.0785582000
Si 5.4554747000 16.3066276900 5.4383224000
Si 6.8269403200 1.3462806300 6.7838066200
Si 8.1855131600 2.7163460000 5.4368209600
Si 9.5341308200 4.0809735600 6.7961282000
Si 8.1745461400 16.3146081600 8.1590584800
Si 9.5359586500 1.3614516900 9.5059299000
Si 5.4786164200 2.7139143300 8.1383157900
Si 6.8164139300 4.0877626700 9.5028780600
Si 5.4432836700 0.0000402800 10.8289088700
Si 6.7693308000 1.3812918800 12.1706394900
Si 8.1777611700 2.7287491900 10.8545475500
Si 9.5369378500 4.0987296900 12.2076368800
Si 8.1076668700 0.0310601800 13.5314644900
Si 9.3987892400 1.5193588900 14.8071808000
Si 5.4475921500 2.7226128800 13.5753162700
Si 6.7964872400 4.0899821800 14.9398295800
Si 5.4564212500 5.4552625400 16.2969009900
Si 6.8160875300 6.7757608700 1.3543998200
Si 8.1556965600 8.1222895700 16.3062033700
Si 9.5005769400 9.4610989200 1.3654974100
Si 8.1857742800 5.4280897700 2.7134900100
Si 9.5349631400 6.7937618100 4.0747882900
Si 5.4741284300 8.1461167400 2.7127066500
Si 6.8249329600 9.5061583800 4.0780033200
Si 5.4661642800 5.4306193700 5.4382734400
Si 6.8197758500 6.7968136400 6.7950184400
Si 8.1829835600 8.1523183300 5.4389588800
Si 9.5417359300 9.5104178900 6.7969442000
Si 8.1823470900 5.4466292700 8.1542440800
Si 9.5428946400 6.8111915400 9.5076434900
Si 5.4632430100 8.1542277600 8.1579813600
Si 6.8249329600 9.5159177200 9.5157708400
Si 5.4433163100 5.4362824000 10.8662000100
Si 6.8174094500 6.7942024500 12.2201706200
Si 8.1877653200 8.1611474300 10.8781788800
Si 9.5488677600 9.5167663600 12.2510153800
Si 8.1694379800 5.4306846500 13.5801633000
Si 9.5215644300 6.7768869500 14.9521185200
Si 5.4787143400 8.1613432700 13.5879152900
Si 6.8239048000 9.5122130900 14.9595767500
Si 5.4380286400 10.8452778000 16.3138411200
Si 6.7770011900 12.1887709900 1.3681575600
Si 8.1134604600 13.5672868400 0.0197254700
Si 9.4373696700 14.8977077200 1.4515901800
Si 8.1816453300 10.8679788900 2.7172272800
Si 9.5535189500 12.2151277500 4.0840417100
Si 5.4500891000 13.5833457000 2.7188429600
Si 6.8080907500 14.9454926100 4.0793415600
Si 5.4564865300 10.8693334500 5.4231448200
Si 6.8188129700 12.2312518900 6.7732475900
Si 8.1884997200 13.5905591300 5.4249889800
Si 9.5254649100 14.9396827000 6.8183560100
Si 8.1663535100 10.8709817700 8.1358514700
Si 9.5112665300 12.2316762100 9.4968233500
Si 5.4710765900 13.5924196000 8.1373202700
Si 6.8140965000 14.9514983700 9.5016867000
Si 5.4711255500 10.8756656000 10.8778851200
Si 6.8240680000 12.2374861200 12.2390691600
Si 8.1694053400 13.6008243900 10.8664937700
Si 9.5119682900 14.9833386400 12.2212803800
Si 8.1758517300 10.8733481600 13.6020483900
Si 9.4958278300 12.2615091300 14.9678509800
Si 5.4686286000 13.5990455200 13.6007754300
Si 6.8195310500 14.9779040900 14.9547134000
Si 10.3437812200 16.0140757800 15.8789300400
Si 12.2792163000 1.3089127800 1.3465776600
Si 13.6400576200 2.7147956100 16.3186065500
Si 14.9758804100 4.0814631600 1.3728724100
Si 13.6101594200 0.0668951000 2.8826302500
Si 15.0605974100 1.3994511200 4.1423856300
Si 10.8993458900 2.6808337300 2.7151872900
Si 12.2646915200 4.0515649600 4.0647841400
Si 10.8762041600 16.3186391900 5.4958666400
Si 12.2624883200 1.3653815400 6.8092005000
Si 13.6270016400 2.7230208700 5.4478206300
Si 14.9850032800 4.0809246000 6.7993922000
Si 13.6213222800 0.0024226200 8.1610658400
Si 14.9894096700 1.3548176100 9.5163746800
Si 10.8929484600 2.7263175100 8.1550764000
Si 12.2453197100 4.0957594600 9.5032860600
Si 10.8913164600 16.3181332800 10.8603411400
Si 12.2563846500 1.3770242100 12.1885261900
Si 13.6059325500 2.7261543100 10.8365792600
Si 14.9111553800 4.1021568900 12.2123859900
Si 13.6674425400 0.0742474100 13.5540350200
Si 15.0269129800 1.4550745000 14.9019509100
Si 10.9271388100 2.7640819400 13.5452222300
Si 12.2506400200 4.0750167700 14.9788343300
Si 10.8840703900 5.4353684800 0.0017787800
Si 12.2486979400 6.7848511000 1.3617160700
Si 13.6397638600 8.1290623600 0.0332865500
Si 14.9939139900 9.5020783800 1.3740213300
Si 13.6105837400 5.4341771300 2.7224333600
Si 14.9801725700 6.7894859700 4.0686682900
Si 10.9085340400 8.1500988100 2.7252567100
Si 12.2744019100 9.5187247600 4.0748372500
Si 10.8915286200 5.4171227500 5.4145441900
Si 12.2399014700 6.7932558900 6.7624274500
Si 13.6322566700 8.1493317700 5.4372452800
Si 14.9977165400 9.4551421300 6.8465079700
Si 13.5867402500 5.4308968100 8.1166755000
Si 14.9098824200 6.7708322400 9.4983900700
Si 10.9073100400 8.1540645600 8.1457250600
Si 12.2585225700 9.5120335700 9.5189369200
Si 10.9033769200 5.4659031600 10.8698720100
Si 12.2648547200 6.8147982600 12.2489753800
Si 13.6253043600 8.1622571900 10.8769385600
Si 15.0533187000 9.4812540900 12.1930631400
Si 13.5957162400 5.4417822400 13.6174544500
Si 14.9859008800 6.7944309200 14.9530814000
Si 10.8947926100 8.1488095300 13.6222035600
Si 12.2575433700 9.4579491600 15.0203197100
Si 10.8177949600 10.8109568900 16.2621720700
Si 12.3711467300 12.2971682800 1.3537551800
Si 13.9670446900 13.8194141700 15.8839076400
Si 14.6692443600 14.6113900400 1.7341281600
Si 13.6780505300 10.8748006400 2.7466685200
Si 15.0069373300 12.1782119600 4.1756620700
Si 10.9562699700 13.6252390800 2.7428006900
Si 12.2573312100 14.9739872900 4.1792851000
Si 10.9116348300 10.8654166600 5.4433979100
Si 12.2708931100 12.2184243800 6.8142107400
Si 13.6358633800 13.5827745000 5.4775719500
Si 14.9856397600 14.9552846000 6.8170830500
Si 13.6364672200 10.8533235500 8.1651621500
Si 14.9817556000 12.2395750800 9.5129148500
Si 10.8994601300 13.5800001000 8.1589279200
Si 12.2530880200 14.9599031500 9.5046732600
Si 10.8679462500 10.8660857700 10.8425034100
Si 12.2181143100 12.2504605000 12.1520184000
Si 13.6208163700 13.6097840600 10.8584317100
Si 14.9835671200 14.9299723200 12.2483552200
Si 13.4637855400 10.7133471100 13.4289423900
Si 15.0322496100 12.0314953600 14.8014851300
Si 10.8433520500 13.5545572600 13.5392164800
Si 12.2129898300 14.9913680700 14.7755690100
H 15.6951671000 15.6782922400 0.9195311800
H 14.9240481600 14.8592252100 15.2403946100
H 11.2457210900 11.1119951900 1.5317947100
H 12.5620904700 9.7197542400 12.5359458700
H 9.5701163700 15.0123066000 15.0608748500
H 0.9923949800 7.0953386700 9.2381353900
H 1.0293629900 3.8041214600 12.4896950500
