&CONTROL
  dt = 30.D0,
  prefix='interstitialOptimizeIteration',
  pseudo_dir = './',
  outdir = './'
  wf_collect = .true.,
  verbosity = 'high',
  tprnfor = .true.,
  tstress = .true.,
/

&SYSTEM
  ibrav = 0, nat = 222, ntyp = 2,
  ecutwfc	= 42.D0,
  degauss	= 0.05D0,
  occupations	= "smearing",
  smearing	= "marzari-vanderbilt",
/
&ELECTRONS
  electron_maxstep = 200,
  conv_thr = 1.D-8,
  mixing_beta = 0.3D0,
  scf_must_converge=.false.,
/
&IONS
/
ATOMIC_SPECIES
Si  28.08  Si.pbe-hgh.UPF
H  1.00784  H.pbe-hgh.UPF
CELL_PARAMETERS { angstrom }
   16.3199774331  0.0  0.0
   0.0  16.3199774331  0.0
   0.0  0.0  16.3199774331
K_POINTS {automatic}
2 2 2  0 0 0
ATOMIC_POSITIONS (angstrom)
Si 15.5389196300 14.4627966400 14.7019495900
Si 0.0328956900 0.1777767800 0.1540272900
Si 1.4283946000 1.4855047300 1.4730509600
Si 2.7469459600 2.7539798700 0.0038081200
Si 4.0898189800 4.1035604100 1.3759421900
Si 2.7403690100 0.0190514500 2.7545673900
Si 4.0946007400 1.3737292000 4.1122752700
Si 16.3035269000 2.7715075300 2.7732374500
Si 1.3627295400 4.1063021600 4.1101373600
Si 0.0009127900 0.0174868600 5.4634225300
Si 1.3605785700 1.3754933900 6.8173768100
Si 2.7178311200 2.7316051800 5.4532225400
Si 4.0772689200 4.0933767400 6.8024113900
Si 2.7180922400 0.0094069500 8.1699439000
Si 4.0713121300 1.3621420200 9.5370520900
Si 16.3122417600 2.7216336800 8.1782181300
Si 1.3601852600 4.0916957800 9.5153465200
Si 0.0330768400 0.0462692600 10.8823404700
Si 1.3560644600 1.4114120300 12.2552096100
Si 2.7205565600 2.7415766900 10.8818671900
Si 4.0778238000 4.0855757900 12.2534144200
Si 2.7106176900 0.0406186300 13.5922727200
Si 4.0892641100 1.3711098500 14.9647828300
Si 16.3116379200 2.7510422800 13.6171606900
Si 1.3616834300 4.0923649000 14.9715556200
Si 0.0009084000 5.4402318400 0.0105088400
Si 1.3445262400 6.8120891400 1.3596630200
Si 2.7401568500 8.1453823400 16.3187044700
Si 4.0780033200 9.5505487100 1.3497143600
Si 2.7092141700 5.4525371000 2.7247834300
Si 4.1153434300 6.7799877400 4.0632337400
Si 16.2271820400 8.0988867200 2.7284880700
Si 1.4352702100 9.4487936500 3.8700378500
Si -0.0006024500 5.4281387300 5.4771965900
Si 1.3691775600 6.8116974600 6.7715992800
Si 2.7460157200 8.1442236200 5.3887423100
Si 4.0721607700 9.5272927500 6.7702120800
Si 2.7194141600 5.4574167700 8.1564962400
Si 4.0829482700 6.8033742700 9.5208137100
Si 16.3039022600 8.1272998000 8.1290786800
Si 1.3881870700 9.4498218100 9.4426573400
Si 0.0048978500 5.4379307200 10.8858982300
Si 1.3677299800 6.7927989300 12.2436061100
Si 2.7242775100 8.1505557700 10.8802025600
Si 4.1145927100 9.4918294300 12.2330144400
Si 2.7273456700 5.4442628700 13.6148922100
Si 4.1085706400 6.7838882200 14.9719309800
Si 16.3032168200 8.1410412200 13.5822685800
Si 1.4083275600 9.4595648400 14.9005963600
Si 0.3123398900 10.5714938600 0.3319711900
Si 1.4019529700 12.3397307800 1.4202199200
Si 2.7471744400 13.6319792300 0.0170148800
Si 4.0975056900 14.9833060000 1.3857341800
Si 2.7855427100 10.9749563400 2.7278352700
Si 4.1236829400 12.2712031900 4.1431363500
Si 16.3152936000 13.6372016200 2.7614544200
Si 1.3669694700 14.9896381500 4.1057636000
Si 16.2434693800 10.9581304500 5.5631702300
Si 1.3697487600 12.3000242700 6.8472423700
Si 2.7248487100 13.6261203600 5.4613172500
Si 4.0881706700 14.9761741700 6.8186987300
Si 2.7262685500 10.8803820700 8.1441583400
Si 4.1084564000 12.2315619700 9.4980310300
Si 16.3006709000 13.6249453200 8.1886792400
Si 1.3583639500 14.9739546500 9.5259871500
Si 0.0225986000 10.7797367700 10.7721153400
Si 1.5332080200 12.0524665300 12.0474726200
Si 2.7710995300 13.6216323600 10.8309978200
Si 4.0725198100 14.9648154700 12.2612969700
Si 2.7909609400 10.8465344400 13.6089843800
Si 4.0915652200 12.2679392000 14.9588097200
Si 16.0172908100 13.0360878900 12.9917628400
Si 1.4299188900 15.1545678400 15.1482846500
Si 5.4465639900 0.0146963400 0.0093221300
Si 6.7954754000 1.3741013000 1.3762783800
Si 8.1459372200 2.7375782900 0.0187498600
Si 9.5103852500 4.0904228200 1.3750119500
Si 8.1540319200 0.0160314900 2.7371050200
Si 9.5185289200 1.3664113300 4.0953351400
Si 5.4365108800 2.7310503000 2.7356525400
Si 6.8102613000 4.0799290800 4.0869793100
Si 5.4509540600 0.0151385300 5.4670455600
Si 6.8065077100 1.3745142000 6.8231867300
Si 8.1620287100 2.7246039100 5.4530430200
Si 9.5043958200 4.0773342000 6.8311345500
Si 8.1432444200 16.3051262500 8.1722776600
Si 9.5393858500 1.3033444100 9.5173049200
Si 5.4146584300 2.7181901600 8.1631221500
Si 6.7404770800 4.1062695200 9.5069743700
Si 5.4375880000 0.0152300500 10.9037359600
Si 6.8220280100 1.3957334300 12.2234672600
Si 8.2659543300 2.8339314400 10.7850081300
Si 9.5413768900 4.1025812100 12.3164095300
Si 8.1568879200 0.0254867500 13.5985232800
Si 9.4965622300 1.3800009700 14.9825552800
Si 5.4519169400 2.7288960700 13.6010039100
Si 6.7928968500 4.0875341900 14.9770554500
Si 5.4602890900 5.4495668600 0.0253947000
Si 6.8131989000 6.8237416000 1.3698532100
Si 8.1651295100 8.1810088500 0.0061225900
Si 9.5214501900 9.5331679400 1.3694680600
Si 8.1590258400 5.4547239800 2.7337594200
Si 9.5199650800 6.8039617900 4.0975709700
Si 5.4405745600 8.1829672400 2.7147629700
Si 6.8076501100 9.5300834600 4.0766324400
Si 5.4557358200 5.4340628900 5.4436100700
Si 6.7945125200 6.8184702500 6.7936475700
Si 8.1592869600 8.1724408600 5.4416680000
Si 9.5147590000 9.5197366000 6.8155979400
Si 8.1309554800 5.4498116600 8.1683445400
Si 9.5041183800 6.7866299800 9.5419644100
Si 5.4238139400 8.1695195800 8.1499682500
Si 6.7931742900 9.5200956400 9.5124089300
Si 5.4245973000 5.4530267000 10.8984646100
Si 6.8149941000 6.7931090100 12.2428880300
Si 8.1507352900 8.1669410300 10.8800556800
Si 9.4997283000 9.5241266700 12.2490406600
Si 8.1528568900 5.4507745400 13.6341824300
Si 9.5176966000 6.8105387400 14.9767616900
Si 5.4623617300 8.1426242600 13.6068627800
Si 6.7975154000 9.5288757800 14.9639994700
Si 5.4470046300 10.9009452500 -0.0021796500
Si 6.7969931600 12.2561398500 1.3718067100
Si 8.1524325700 13.6177155700 0.0126070200
Si 9.5064031700 14.9706090600 1.3826692900
Si 8.1613922300 10.8952658900 2.7222048800
Si 9.5153954800 12.2474249800 4.0901617000
Si 5.4531572600 13.6214528400 2.7447427600
Si 6.8037496300 14.9807927200 4.0998068100
Si 5.4719578700 10.8808390300 5.4585428500
Si 6.8233172800 12.2466089900 6.8091678600
Si 8.1604130400 13.6090496600 5.4411947200
Si 9.5068438100 14.9669697000 6.8034395500
Si 8.1653906300 10.8830422300 8.1748399000
Si 9.5182188400 12.2406685100 9.5378354500
Si 5.4549361400 13.6009549500 8.1515186500
Si 6.7818808600 14.9596257100 9.5375906500
Si 5.4489467100 10.8793376000 10.8804963100
Si 6.7992942800 12.2450749100 12.2442262700
Si 8.1531343300 13.6045127100 10.8859145500
Si 9.5049017400 14.9625469900 12.2493507400
Si 8.1512901700 10.8880198200 13.6084784600
Si 9.5010828600 12.2471638600 14.9762068100
Si 5.4544139000 13.6174381300 13.6037130300
Si 6.8058059500 14.9804663300 14.9645543500
Si 10.8394678900 0.0484365500 0.0483312900
Si 12.2375514000 1.3887354200 1.3845575100
Si 13.5893514500 2.7552528300 0.0268998900
Si 14.9532935600 4.1051108000 1.3832812900
Si 13.5759690700 0.0265467300 2.7599040200
Si 14.9569982000 1.3712518300 4.1032013700
Si 10.8675545700 2.7351139800 2.7396019700
Si 12.2235488600 4.0867997900 4.1027117700
Si 10.8742131200 0.0127073200 5.4597015700
Si 12.2434755500 1.3732934600 6.8050715500
Si 13.5972666400 2.7327639000 5.4500891000
Si 14.9510903700 4.0749025300 6.8234968000
Si 13.5940842400 0.0080907100 8.1635464700
Si 14.9477284500 1.3655561600 9.5328905000
Si 10.8705574500 2.7037633000 8.1768309300
Si 12.2157479100 4.0714263700 9.5450978400
Si 10.8921487800 16.3081128100 10.9096764300
Si 12.2376656400 1.3797969700 12.2596649700
Si 13.5970708000 2.7274599100 10.8958697300
Si 14.9534241200 4.0941927400 12.2486326600
Si 13.6082173400 0.0207053200 13.6499801700
Si 14.9674103400 1.4085429800 15.0067741300
Si 10.8887868600 2.7174557600 13.6422118600
Si 12.2369965200 4.1025812100 14.9800420100
Si 10.8688928100 5.4485713500 0.0194153900
Si 12.2286406900 6.8001918800 1.3817292600
Si 13.5664545200 8.1382505100 16.3054526500
Si 14.8606613700 9.4724902600 1.4107282300
Si 13.5830845800 5.4447198300 2.7495571600
Si 14.9337748700 6.7676008800 4.1503008200
Si 10.8716019300 8.1662555900 2.7323232600
Si 12.2196483800 9.5212706700 4.1012103300
Si 10.8655145800 5.4405092800 5.4691345200
Si 12.2234509400 6.7985925200 6.8261896000
Si 13.5723949900 8.1609189600 5.4629166100
Si 14.8978546000 9.5127842900 6.8454145300
Si 13.5768993100 5.4231448200 8.1729957400
Si 14.9591361100 6.7717298400 9.5115439700
Si 10.8625933000 8.1546684000 8.1828693200
Si 12.2194362200 9.5204057200 9.5396796100
Si 10.8714060900 5.4406561600 10.9138706700
Si 12.2437203500 6.8136721800 12.2437856300
Si 13.5985885600 8.1373529100 10.8546454700
Si 14.9719473000 9.4831145700 12.1896033000
Si 13.5936436000 5.4511662200 13.6064221500
Si 14.9601153100 6.7929458100 14.9674266600
Si 10.8590192200 8.1576549600 13.5949165600
Si 12.2022023300 9.5028943800 14.9701031400
Si 10.8751596800 10.8985135700 0.0068638100
Si 12.2110477500 12.2548505700 1.3959455900
Si 13.5323294500 13.6979445800 0.0224750600
Si 14.9827021600 15.0343875300 1.4103430700
Si 13.5675969200 10.8951842900 2.7496550800
Si 14.9504375700 12.2501177800 4.0782807600
Si 10.8691376100 13.6216486800 2.7443510900
Si 12.2316435700 14.9711476200 4.1101700000
Si 10.8649923400 10.8829116700 5.4542670200
Si 12.2250013400 12.2454339500 6.8042881900
Si 13.5967280800 13.6040231100 5.4554583800
Si 14.9555130800 14.9714577000 6.8081560300
Si 13.5658506800 10.8959839700 8.1872430800
Si 14.9584833200 12.2344016400 9.5304098600
Si 10.8545801900 13.6001879100 8.1558597600
Si 12.2076205600 14.9702010600 9.4946201500
Si 10.8690886500 10.8819487900 10.9085503600
Si 12.2251645400 12.2533165000 12.2662745600
Si 13.5467563100 13.5997146300 10.8533725100
Si 14.9071080300 15.0295241800 12.1649275000
Si 13.5803265000 10.8042493800 13.5681518000
Si 15.1462283400 11.9211886400 15.0207603500
Si 10.8472688400 13.6062915900 13.6169485300
Si 12.1444785700 15.0401158400 14.9604906700
H 13.5703713200 12.5325839500 15.1377909100
H 14.8897435700 12.2868050900 12.3908449500
H 9.1961440800 3.7740437400 9.8570542100
H 1.0685293100 9.8110155500 5.4189016300
H 1.2053870100 9.6781546200 1.2854740300
