&CONTROL
  dt = 30.D0,
  prefix='interstitialOptimizeIteration',
  pseudo_dir = './',
  outdir = './'
  wf_collect = .true.,
  verbosity = 'high',
  tprnfor = .true.,
  tstress = .true.,
/

&SYSTEM
  ibrav = 0, nat = 223, ntyp = 2,
  ecutwfc	= 42.D0,
  degauss	= 0.05D0,
  occupations	= "smearing",
  smearing	= "marzari-vanderbilt",
/
&ELECTRONS
  electron_maxstep = 200,
  conv_thr = 1.D-8,
  mixing_beta = 0.3D0,
  scf_must_converge=.false.,
/
&IONS
/
ATOMIC_SPECIES
Si  28.08  Si.pbe-hgh.UPF
H  1.00784  H.pbe-hgh.UPF
CELL_PARAMETERS { angstrom }
   16.3199774331  0.0  0.0
   0.0  16.3199774331  0.0
   0.0  0.0  16.3199774331
K_POINTS {automatic}
2 2 2  0 0 0
ATOMIC_POSITIONS (angstrom)
Si 11.5765759900 15.6977782900 2.2429197800
Si 0.1010632600 16.3154568000 16.2400258600
Si 1.3954478300 1.3728544500 1.3286730100
Si 2.7460320400 2.7274272700 16.2854117200
Si 4.0967713000 4.0800106800 1.3391308500
Si 2.7250771900 0.0202454200 2.7148608900
Si 4.0904065000 1.3629971900 4.0775137200
Si 0.0966170400 2.8094514800 2.6640894400
Si 1.4210636700 4.1169101500 4.0734010900
Si 0.0547466700 0.0413455200 5.4610398100
Si 1.4010145700 1.3794820000 6.8324564700
Si 2.7420499700 2.7263338300 5.4407377600
Si 4.0858858700 4.0886929100 6.8025093100
Si 2.7459014800 16.3156852800 8.1630731900
Si 4.0935399400 1.3704815300 9.5094386900
Si 0.0110475000 2.7310013400 8.1717064600
Si 1.3445996800 4.1036583300 9.5442002400
Si 0.0176081100 16.3035595400 10.8546944300
Si 1.3855089600 1.3339117200 12.2152909500
Si 2.7245223100 2.7246855100 10.8676198500
Si 4.1059757600 4.0695169300 12.2200400600
Si 2.7531149100 16.3020091400 13.5766218700
Si 4.1000352900 1.3674052100 14.9248641600
Si 0.0347036200 2.6925188400 13.5746797900
Si 1.3729458500 4.0792762800 14.9324855900
Si 0.0272718200 5.4542996600 16.2896386000
Si 1.3815627900 6.7994248400 1.3419346200
Si 2.7289939900 8.1597765600 16.2994305800
Si 4.0805655600 9.5264277900 1.3284298400
Si 2.7601488200 5.4587386900 2.6981002700
Si 4.1043111200 6.8069483500 4.0626951800
Si 0.0091577900 8.1431791400 2.7012989800
Si 1.3653864300 9.4919763100 4.0725687700
Si 0.0023537000 5.4322676900 5.4156376300
Si 1.3641918100 6.7864178200 6.7751243900
Si 2.7294835900 8.1412207400 5.4253969800
Si 4.0772036400 9.5129474900 6.7786658300
Si 2.7069783400 5.4347809600 8.1580956000
Si 4.0944701800 6.7935659700 9.4866723200
Si 0.0145979800 8.1660923900 8.1145212600
Si 1.3657683200 9.5115929300 9.4940652700
Si 16.2236895700 5.5450876900 10.9718718700
Si 1.4358724100 6.8196289700 12.2391181200
Si 2.7524621100 8.1645583100 10.8413283700
Si 4.0955636200 9.5139103600 12.2176410300
Si 2.7563952300 5.4262945800 13.5861853700
Si 4.0929361000 6.8005346000 14.9457700500
Si 0.0423921200 8.1658149500 13.5707793100
Si 1.3742090100 9.5301324200 14.9499642900
Si 16.2985819400 10.8594272200 16.2963461100
Si 1.3190768600 12.1894074600 1.3679682500
Si 2.8403615100 13.4707378500 0.0943464400
Si 4.1050618400 15.0095974900 1.3633235900
Si 2.7100791300 10.8575993900 2.7056727400
Si 4.0636091000 12.2456297900 4.0462120000
Si 16.3194225500 13.6049043900 2.6998138700
Si 1.3528380000 14.9793728900 4.0567057500
Si 0.0059398700 10.8702147300 5.4127326800
Si 1.3608282600 12.2371760400 6.7682700000
Si 2.7114010500 13.6073523800 5.4130427500
Si 4.0782644400 14.9550561200 6.7817176600
Si 2.7176842400 10.8747190400 8.1338930700
Si 4.0758490800 12.2261600500 9.5011318200
Si 16.3196836700 13.6037946300 8.1158105400
Si 1.3658874600 14.9468961300 9.4877004800
Si 0.0057769300 10.8775587200 10.8414915700
Si 1.3640106600 12.2287712500 12.2044218400
Si 2.7204749600 13.5918647300 10.8512998800
Si 4.0858042700 14.9533425200 12.2005866500
Si 2.7198384800 10.8691049700 13.5587188500
Si 4.1159799100 12.2148829500 14.8744027900
Si 0.0280230300 13.5851408900 13.5852061700
Si 1.4411813000 14.9075323500 14.9345419100
Si 5.4490283100 0.0076818300 16.2866194000
Si 6.7910526900 1.3491105200 1.3494826100
Si 8.1555986400 2.7262032700 0.0213839000
Si 9.4966764700 4.0645393400 1.4059693200
Si 8.1390501900 16.3008341000 2.7099975300
Si 9.5311769000 1.3290108300 4.0494923200
Si 5.4408356800 2.7157421600 2.7066356200
Si 6.7940392500 4.0703982100 4.0772852400
Si 5.4446055900 16.3142491200 5.4320555300
Si 6.8043045100 1.3572492900 6.7858629400
Si 8.1665656700 2.7012826600 5.4097787600
Si 9.5243714700 4.0643598200 6.7692981600
Si 8.1081238300 0.0071455700 8.2064353700
Si 9.5288921000 1.3586821900 9.5081167700
Si 5.4525044600 2.7233146300 8.1456924200
Si 6.8213262500 4.0688151700 9.5078719700
Si 5.4383224000 0.0134874500 10.8770691200
Si 6.8215547300 1.3548486200 12.2281510900
Si 8.1853826000 2.7215357600 10.8804963100
Si 9.5469746400 4.0852004300 12.2433939500
Si 8.1753458200 16.3146571200 13.5865770500
Si 9.4952892700 1.4133688000 14.9282587200
Si 5.4754829900 2.7257952700 13.5840964200
Si 6.8250635200 4.0929034600 14.9557905200
Si 5.4512804600 5.4431041500 16.3039512200
Si 6.8090699400 6.7942677300 1.3450142000
Si 8.1643135100 8.1632690300 16.3144776000
Si 9.5191001200 9.5174518000 1.3519420300
Si 8.1476671300 5.4450299100 2.7323559000
Si 9.5221029900 6.8021992300 4.0677054200
Si 5.4401502400 8.1607394400 2.6875249200
Si 6.7786495100 9.5034819000 4.0647678200
Si 5.4420107100 5.4384203200 5.4326430500
Si 6.8098859400 6.7907752500 6.7831864600
Si 8.1556312800 8.1553048800 5.4213822600
Si 9.5142204400 9.5020783800 6.7900082100
Si 8.1688667800 5.4236997000 8.1354271500
Si 9.5225925900 6.7827784600 9.4975414300
Si 5.4488977500 8.1573122400 8.1312492400
Si 6.8031947500 9.5119846100 9.4982595100
Si 5.4470046300 5.4296891300 10.8471382800
Si 6.7980702800 6.7879192500 12.2078490400
Si 8.1594991200 8.1440441000 10.8496678800
Si 9.5237513100 9.4985695900 12.2078816800
Si 8.1730447000 5.4563396600 13.5824317800
Si 9.5143999600 6.8521383700 14.9169326500
Si 5.4495505400 8.1476834500 13.5750061900
Si 6.8126929800 9.5001363000 14.9376427000
Si 5.4420759900 10.8703616100 16.2741019800
Si 6.7787800700 12.2323942900 1.3354931300
Si 8.1303026800 13.5382372800 16.2436815400
Si 9.4342525500 14.9450193300 1.2934855100
Si 8.1223711700 10.8538784300 2.7031757800
Si 9.4344810300 12.1679956500 4.1354659600
Si 5.4380123200 13.6101920600 2.7020823400
Si 6.7975970000 14.9469940500 4.0802065200
Si 5.4204683400 10.8779504000 5.4117371600
Si 6.7755650300 12.2209539800 6.7930437300
Si 8.1276914800 13.5977399200 5.4611050900
Si 9.4325389600 14.9286014400 6.8912736700
Si 8.1598581600 10.8739356800 8.1414002600
Si 9.5194102000 12.2314150900 9.5046569400
Si 5.4264088200 13.5911466500 8.1473570500
Si 6.7645980100 14.9466023700 9.5327436200
Si 5.4477390300 10.8745721600 10.8570608300
Si 6.8154347400 12.2223738200 12.2161559100
Si 8.1577692000 13.5907060100 10.8584480300
Si 9.5185452400 14.9496705300 12.2109008800
Si 8.1700418200 10.8528665900 13.5722317900
Si 9.5400060100 12.2090077600 14.9173080100
Si 5.4572862100 13.6048554300 13.5455649500
Si 6.7975480400 14.9528855600 14.9287483200
Si 10.8805126300 0.0201088200 16.2204418900
Si 12.2718396700 1.4630076400 1.3555977100
Si 13.7092053600 2.7085287300 16.2891163600
Si 14.9935875900 4.1163226300 1.3399729600
Si 14.0029976000 0.0038296100 2.7987129300
Si 15.1509284900 1.5651021600 4.1558332900
Si 10.8930953400 2.7500141200 2.7530659500
Si 12.2556665700 4.1152944700 4.0791783600
Si 10.7312501200 0.0228698400 5.5870463500
Si 12.2527779400 1.3513741000 6.7951979600
Si 13.5891719300 2.7477619600 5.4378328000
Si 14.9718330600 4.0761918000 6.7941698100
Si 13.6046432700 16.3039185800 8.1385116300
Si 14.9729428200 1.3367138600 9.4948486300
Si 10.8874486300 2.7185002400 8.1407474600
Si 12.2476697800 4.0761918000 9.4990265400
Si 10.8821283100 16.2992021000 10.8499290000
Si 12.2417293100 1.3353021900 12.2037527200
Si 13.5941005600 2.6842119700 10.8367424600
Si 14.9500295700 3.9996347900 12.2274003700
Si 13.6199350900 16.3046203300 13.5500203000
Si 15.0049789300 1.3163351100 14.9092622600
Si 10.9208066600 2.7175047200 13.5862180100
Si 12.3198856800 4.0384437000 14.9407761400
Si 10.7816951700 5.3179625700 16.1965494400
Si 12.2162211900 6.7687432800 1.3020078000
Si 13.6011344700 8.1188297300 16.2746895000
Si 14.9565738800 9.4743344200 1.3285310300
Si 13.5936925600 5.4509214200 2.6824820500
Si 14.9606701900 6.7923419700 4.0556286300
Si 10.8824220700 8.1360309900 2.6839508500
Si 12.2377472400 9.4918294300 4.0554001500
Si 10.8793376000 5.4511499000 5.4322676900
Si 12.2421699500 6.8014158800 6.7889474100
Si 13.6038435900 8.1495602500 5.4205009800
Si 14.9563127600 9.5207157900 6.7746674300
Si 13.6011834300 5.4330020900 8.1321468400
Si 14.9512862100 6.8214078500 9.4476023000
Si 10.8760899200 8.1500661700 8.1490053700
Si 12.2266986100 9.5004953400 9.5215317900
Si 10.8851964700 5.4299339300 10.8553145900
Si 12.2633206400 6.7695919200 12.2076205600
Si 13.6081520600 8.1428527400 10.8488192400
Si 14.9848074400 9.4973782300 12.1966535300
Si 13.6323709100 5.4140382700 13.5625050900
Si 14.9940119100 6.7905467700 14.9071896300
Si 10.9092847500 8.1543420000 13.5520766200
Si 12.2602524900 9.4993366200 14.9206046500
Si 10.8824873500 10.8371341300 16.2788021300
Si 12.2547036900 12.1665595000 1.3209520300
Si 13.5700938800 13.5804733800 16.2768437300
Si 15.0791532300 14.8956350800 1.1851665500
Si 13.6061773500 10.8308183000 2.6954890700
Si 14.9670023400 12.2032468100 4.0271176300
Si 10.7529883300 13.4052947400 2.6576756900
Si 11.8981774700 14.6758539500 4.4156636500
Si 10.8833523100 10.8417526900 5.4328062500
Si 12.2301094900 12.1801377200 6.8253246400
Si 13.6347373100 13.4799912800 5.4921130500
Si 14.9609313100 14.9791933700 6.7550018600
Si 13.5965975200 10.8416547700 8.1715595800
Si 14.9658762700 12.2354624400 9.4813193700
Si 10.8866652700 13.5837373800 8.1556312800
Si 12.2532185800 14.9437627000 9.5031065400
Si 10.8734134400 10.8730544000 10.8624953800
Si 12.2527289800 12.2205623000 12.2101828000
Si 13.6160672500 13.5836231400 10.8575014700
Si 14.9862436000 14.9390462200 12.2127776700
Si 13.6199514100 10.8532093100 13.5563361300
Si 14.9666269800 12.2174941500 14.9151701000
Si 10.8801046400 13.5799348200 13.5525662200
Si 12.2446832300 14.9491972500 14.8879320500
H 14.7095873400 15.0868073000 3.4912838100
H 12.4165652300 14.8310895700 1.3479289500
H 13.0379483700 15.9411254800 4.0171461300
H 9.8786945000 4.4081075000 15.2156861600
H 3.7652472700 12.5233305200 1.0196036500
H 15.2884406200 6.4390797400 11.9379982100
