&CONTROL
  dt = 30.D0,
  prefix='liquidOptimizeIteration',
  pseudo_dir = './',
  outdir = './'
  wf_collect = .true.,
  verbosity = 'high',
  tprnfor = .true.,
  tstress = .true.,
/

&SYSTEM
  ibrav = 0, nat = 72, ntyp = 2,
  ecutwfc	= 42.D0,
  degauss	= 0.05D0,
  occupations	= "smearing",
  smearing	= "marzari-vanderbilt",
/
&ELECTRONS
  electron_maxstep = 200,
  conv_thr = 1.D-8,
  mixing_beta = 0.3D0,
  scf_must_converge=.false.,
/
&IONS
/
ATOMIC_SPECIES
Si  28.08  Si.pbe-hgh.UPF
H  1.00784  H.pbe-hgh.UPF
CELL_PARAMETERS { angstrom }
   10.914011036500002  0.0  0.0
   0.0  10.914011036500002  0.0
   0.0  0.0  10.914011036500002
K_POINTS {automatic}
3 3 3  0 0 0
ATOMIC_POSITIONS (angstrom)
Si 9.8247163400 4.7925168700 1.7074970300
Si 6.4307863200 2.1928540100 10.0772665500
Si 7.6426235400 7.6805715600 6.2785795300
Si 2.1545240000 7.3011459600 7.0469586500
Si 7.8227047200 10.1177138800 0.9031813400
Si 2.0164290200 9.5661088500 7.8418588100
Si 0.9962036400 3.3073055100 7.5208886600
Si 5.7867723600 5.3726729500 3.6025731600
Si 0.4374215600 6.5528704500 1.8183724600
Si 3.2774666000 10.1634108400 4.8084076700
Si 0.0145481600 3.4468302200 5.4193194400
Si 1.7255488000 9.4959535800 3.1439227600
Si 4.8244076100 4.2197495700 7.1800113500
Si -0.0091116700 5.0752661500 8.7682182400
Si 4.0307079900 0.8181295500 6.4280687400
Si 1.9845055400 6.2852589000 9.0892538800
Si 6.0042449500 7.9882047900 9.3064099500
Si 8.7307831800 4.0271172800 4.9921450500
Si 5.7202514600 3.0972326200 2.7919131600
Si 4.7888279300 10.2686764800 2.9730093500
Si 9.5049358100 2.4441163700 2.0270156100
Si 0.1498035300 8.2478054500 0.2139004300
Si 7.7962273300 2.3652735600 3.6065131200
Si 9.1110382400 4.6599116400 10.3594046500
Si 0.2605742000 0.5163822400 2.6799463200
Si 9.4928758300 6.4734491900 7.3970692100
Si 2.1523630300 8.4861565400 9.9252562100
Si 7.7724129600 6.7589815500 10.3562941600
Si 5.8833395300 4.0029754800 0.6005096200
Si 3.8958435500 6.9722740700 5.6091904900
Si 7.6561460000 7.8760087500 1.5224172300
Si 1.2700962100 1.7733849100 9.2905628100
Si 6.7663921600 9.4728922800 4.0950460800
Si 4.7201569800 0.5484301500 10.5093522500
Si 7.9131600500 4.6327903200 7.0612560000
Si 3.0654073700 2.9469576000 6.2617501200
Si 1.7937832000 3.0733418500 0.2927759900
Si 10.1606277700 0.6848672900 9.8394284200
Si 4.0286234100 5.2426980000 9.0993384200
Si 8.2744138100 5.6230840200 3.3452862600
Si 2.0474357300 3.5830261700 4.2139105800
Si 9.5717732200 7.8705844900 9.3581860200
Si 6.0053254300 5.9285999400 5.9699858600
Si 6.5766848200 2.8069854100 7.8489420100
Si 7.0625766000 9.5149439600 7.7814934200
Si 3.3016629600 5.5545876900 3.8392544000
Si 8.7053862800 2.2796422300 10.6876217100
Si 4.3060139100 1.3260305100 1.8857446500
Si 0.1300819100 7.5388094700 5.9774619600
Si 10.1874653200 0.2246845600 4.8698208100
Si 3.6419181700 8.4925194100 1.8279113100
Si 10.1559347400 10.2932984900 0.8798177200
Si 0.0808981400 7.8709992200 3.6995987200
Si 2.7313840600 6.3241346100 1.7503563500
Si 6.3694168400 0.6976552400 6.7919746100
Si 9.2943063100 9.9797280400 8.3749755100
Si 5.6790510700 7.6036277800 2.7118698100
Si 2.0932964000 2.0330838000 2.3726077700
Si 3.1826020200 0.5526986200 8.6392146300
Si 8.5993130100 7.8655640400 3.9601489000
Si 7.8182627200 0.4871839900 4.9309392700
Si 4.3533043200 9.0737014100 10.5965552000
Si 3.5673645600 4.6250850300 0.3522617100
Si 10.8914081200 9.8291146800 6.6820596000
H 0.5532705100 3.9388011000 0.5213306600
H 5.0477191900 6.5431024100 9.1358130500
H 5.9079833700 9.1303778700 5.2884931900
H 3.8234727400 8.6543960200 5.1983871100
H 10.6236656000 1.7899851200 5.2537757200
H 6.3145193700 5.4518431900 0.0770130800
H 7.4320049600 4.2296813200 0.8795721500
H 7.5039610300 0.1220393800 2.0585789300
