&CONTROL
  dt = 30.D0,
  prefix='liquidOptimizeIteration',
  pseudo_dir = './',
  outdir = './'
  wf_collect = .true.,
  verbosity = 'high',
  tprnfor = .true.,
  tstress = .true.,
/

&SYSTEM
  ibrav = 0, nat = 72, ntyp = 2,
  ecutwfc	= 42.D0,
  degauss	= 0.05D0,
  occupations	= "smearing",
  smearing	= "marzari-vanderbilt",
/
&ELECTRONS
  electron_maxstep = 200,
  conv_thr = 1.D-8,
  mixing_beta = 0.3D0,
  scf_must_converge=.false.,
/
&IONS
/
ATOMIC_SPECIES
Si  28.08  Si.pbe-hgh.UPF
H  1.00784  H.pbe-hgh.UPF
CELL_PARAMETERS { angstrom }
   10.914011036500002  0.0  0.0
   0.0  10.914011036500002  0.0
   0.0  0.0  10.914011036500002
K_POINTS {automatic}
3 3 3  0 0 0
ATOMIC_POSITIONS (angstrom)
Si 10.8361286500 0.0663185500 5.8403601600
Si 3.5609798600 0.5117405200 10.7286365600
Si 4.1998751600 4.2212884500 3.2722060500
Si 9.8844378100 3.4045711700 1.3223634100
Si 2.9517925100 9.4348460300 3.1440209900
Si 4.1758206800 6.8654477300 5.5340693500
Si 6.5216236400 2.0623333500 10.7028904100
Si 4.0666478200 7.9155065600 0.0956713500
Si 4.7483806100 0.0196038600 6.1794148200
Si 7.5996005100 5.2696119500 9.3314248700
Si 4.9682870200 3.5186771600 7.3755031200
Si 3.4301645300 9.0707873700 5.4206182100
Si 9.5003955900 8.8082835800 8.2891695500
Si 4.5904330400 9.8762195600 1.3078477700
Si 1.4641473200 1.8077203900 2.2977813100
Si 8.0673095400 2.3539448100 6.8719197400
Si 1.2075916700 8.9902092300 6.3308467300
Si 9.9753842600 7.9941856600 5.8990447900
Si 6.1020999700 5.2475438200 1.6872842800
Si 3.6536398200 4.1223092800 9.1739684300
Si 8.7978606900 10.0159189000 5.1376506400
Si 4.0351609000 10.7988900500 8.5074388600
Si 2.7852556200 1.6328997600 5.4967325200
Si 7.0279246100 4.5421276300 7.1378396200
Si 2.2527719300 5.6263364000 6.1549237800
Si 7.3781006500 2.1481065700 3.6649685600
Si 3.3714580600 0.8170436000 3.2982687100
Si 6.4233538800 6.7319475500 6.3238617600
Si 6.9584569300 9.4864802200 1.3801967500
Si 7.9795499800 5.9648562800 2.8969496100
Si 1.5122344600 7.9570889400 8.5259599400
Si 7.3756559200 9.8068501000 8.5416979400
Si 7.7873979000 0.0275005800 10.6353217600
Si 9.8000179300 0.9849447500 0.9241471600
Si 2.8462867700 7.3764308100 1.9943172400
Si 5.9045345400 6.4792991000 10.5210520700
Si 0.3892798500 9.4873206000 10.0487591600
Si 5.9434320800 7.9083469700 8.3107902100
Si 4.1658889300 2.7375177300 0.0608303300
Si 7.1326882000 0.1647011600 6.5373398100
Si 3.7324608100 8.5180145400 8.8115359500
Si 0.5679498500 5.8507612100 9.3250292600
Si 10.7894385100 0.2826445100 8.2500537400
Si 9.6156366300 2.3767223600 8.6555419900
Si 8.4106315800 3.3871851500 10.4276499600
Si 1.1472699300 0.7523529900 0.0219735100
Si 0.1785892400 4.0747023600 7.7522329500
Si 10.5069402500 4.0857800900 5.2497375300
Si 0.7495480800 4.8945410500 0.6755991100
Si 0.4498024100 6.2622412500 4.6910165700
Si 0.6642791000 6.6558332300 2.2421853400
Si 5.8874432000 2.8207916400 1.9832286000
Si 0.5799541800 1.9928111000 4.5755899900
Si 2.6093326700 3.7252793900 1.5974183100
Si 9.3426990400 6.7703866900 9.4905293200
Si 2.1260602600 0.9381334600 7.6941704100
Si 4.6754641000 6.5223439600 3.2007847600
Si 8.7762400400 0.3635369800 2.9933203200
Si 8.9398956300 3.9324818900 3.4441562900
Si 6.7328861500 7.5576797900 4.0932125300
Si 10.2935931700 8.4049781300 1.1974962000
Si 3.5924777000 3.8040785500 5.5297692300
Si 8.5394824000 8.8262589500 2.9984608200
Si 1.6011072500 2.7318533600 9.1230764000
H 9.4605048700 7.2604257900 0.1812304300
H 4.6645064300 1.6065206000 2.6644266000
H 4.7819302800 5.3631995900 9.9003613500
H 9.1191910100 2.5026482100 5.7713290400
H 8.3901023300 9.4252853600 0.4079166200
H 6.9361268600 8.1172629700 0.5641725200
H 8.6856864900 6.8080291200 1.8084516300
H 1.3905541500 9.6635273100 3.0168400200
