&CONTROL
  dt = 30.D0,
  prefix='liquidOptimizeIteration',
  pseudo_dir = './',
  outdir = './'
  wf_collect = .true.,
  verbosity = 'high',
  tprnfor = .true.,
  tstress = .true.,
/

&SYSTEM
  ibrav = 0, nat = 72, ntyp = 2,
  ecutwfc	= 42.D0,
  degauss	= 0.05D0,
  occupations	= "smearing",
  smearing	= "marzari-vanderbilt",
/
&ELECTRONS
  electron_maxstep = 200,
  conv_thr = 1.D-8,
  mixing_beta = 0.3D0,
  scf_must_converge=.false.,
/
&IONS
/
ATOMIC_SPECIES
Si  28.08  Si.pbe-hgh.UPF
H  1.00784  H.pbe-hgh.UPF
CELL_PARAMETERS { angstrom }
   10.914011036500002  0.0  0.0
   0.0  10.914011036500002  0.0
   0.0  0.0  10.914011036500002
K_POINTS {automatic}
3 3 3  0 0 0
ATOMIC_POSITIONS (angstrom)
Si 8.8706353200 6.0217073600 1.2554823500
Si 6.0412652700 2.1173618000 9.8085636000
Si 7.4842830700 7.6032894400 6.4518285400
Si 2.1350206700 7.5041465700 7.1586417200
Si 7.9426278800 9.8737311600 1.1230735600
Si 1.6405614000 9.6780320300 8.0094216200
Si 10.8664914300 3.2563043300 7.6672892100
Si 5.5772342600 5.3007277900 3.5392282400
Si 0.4645472400 6.5290779100 2.3703158300
Si 3.4804017200 9.7913085500 4.9993701200
Si 0.1483465100 3.1131452500 5.3169023600
Si 1.1617528200 9.6845913500 4.5612380600
Si 5.1763080700 4.2823632500 7.0246176700
Si 0.1440605800 5.1656996500 8.9962992400
Si 3.9646673100 0.7081741600 6.4702077300
Si 2.3837728100 6.1110494600 9.1017613300
Si 5.7804640600 8.0329740600 9.2057936900
Si 8.9294509300 3.9881542600 4.6008886600
Si 5.6489284000 3.2387546000 2.2489847700
Si 4.7674255600 10.2036944600 3.0963376700
Si 10.7164892600 4.3202239600 1.8722331100
Si 0.2600852500 8.0240027400 0.5317622700
Si 7.7660064400 2.5252511300 3.0467444100
Si 9.5328320300 4.2408245300 10.6855807900
Si 0.4842001000 0.2777823200 2.8988813900
Si 9.1698756700 6.2741593500 7.6748526100
Si 2.0140716000 8.3073523000 9.9128033200
Si 7.4878628600 5.3641709400 10.1206279200
Si 5.4686944200 4.2014358600 10.8813344900
Si 3.7193312500 7.4309244700 5.4664897900
Si 7.4793826800 7.7443530400 0.0373772100
Si 0.9048882900 1.9157581900 9.3682924000
Si 7.1591437700 9.7604655500 3.3205769400
Si 4.3662156000 0.6033363500 10.4073826400
Si 8.6615119500 3.9174314700 7.0653596700
Si 3.8560619800 2.8950287400 5.6371958400
Si 1.4297572700 3.2536522300 0.4297195400
Si 9.9679954700 0.6369569600 10.1668705800
Si 4.7923640700 5.7497847800 8.8536203800
Si 7.9772580300 5.8735496600 3.4568165400
Si 2.1576017600 3.5099786900 4.1334306600
Si 9.1001460600 8.1318222600 9.1714800300
Si 5.7064125000 6.2122441700 5.8080546800
Si 6.7674180800 2.6304185400 7.6590491300
Si 6.9065062400 9.5481662100 7.6634256500
Si 3.1662091700 5.6652011900 3.9103919300
Si 8.8887962300 2.1303822100 0.8259057800
Si 4.2762950600 1.2540744400 1.8296466400
Si 0.1492065400 6.7116584000 6.2776627500
Si 10.1993397700 0.9326349900 4.8838016600
Si 3.9819005300 8.4912424700 1.6812815700
Si 10.2792630700 10.0993019400 1.0810928200
Si 10.7668137700 7.7982355100 4.2375830700
Si 2.7186474100 6.5179237900 1.8245825400
Si 6.3481345200 0.6260909700 6.4899402600
Si 9.0381653900 10.3641085900 8.3198925000
Si 5.8201146700 7.0361101200 1.8471745400
Si 2.0765979700 1.9551577700 2.3055630000
Si 2.8313127400 0.7182783500 8.5866636700
Si 8.4351990200 8.0142237900 4.3744011100
Si 7.8255751100 0.7280223800 4.5521685200
Si 4.1367921700 9.1906886900 10.4003758500
Si 3.0994045100 4.8801563800 0.1328060500
Si 10.7430758000 10.2684582000 6.5973232200
H 5.3813168500 5.8400654800 0.8263336100
H 0.5934209700 5.3229268900 5.8220355300
H 10.5583015900 8.3199907200 9.6467743000
H 9.9703310700 7.1597876900 10.8896182200
H 10.2676069000 2.1419074100 1.6071863500
H 7.3694458400 1.9956269200 10.7304919400
H 6.5692414700 7.9685050000 2.8733644300
H 4.9437195800 2.7229147900 4.5525068500
