&CONTROL
  dt = 30.D0,
  prefix='liquidOptimizeIteration',
  pseudo_dir = './',
  outdir = './'
  wf_collect = .true.,
  verbosity = 'high',
  tprnfor = .true.,
  tstress = .true.,
/

&SYSTEM
  ibrav = 0, nat = 72, ntyp = 2,
  ecutwfc	= 42.D0,
  degauss	= 0.05D0,
  occupations	= "smearing",
  smearing	= "marzari-vanderbilt",
/
&ELECTRONS
  electron_maxstep = 200,
  conv_thr = 1.D-8,
  mixing_beta = 0.3D0,
  scf_must_converge=.false.,
/
&IONS
/
ATOMIC_SPECIES
Si  28.08  Si.pbe-hgh.UPF
H  1.00784  H.pbe-hgh.UPF
CELL_PARAMETERS { angstrom }
   10.914011036500002  0.0  0.0
   0.0  10.914011036500002  0.0
   0.0  0.0  10.914011036500002
K_POINTS {automatic}
3 3 3  0 0 0
ATOMIC_POSITIONS (angstrom)
Si 9.5328102000 1.7636168700 4.8406694900
Si 3.5783331400 0.8855071900 10.5185527600
Si 4.0017531100 4.5259967200 3.7021853400
Si 9.4237464900 4.1887210400 1.4327040600
Si 4.4254459400 9.4082049300 2.2770556100
Si 4.8529586600 6.4953863600 4.6007249500
Si 6.5830476900 2.1095037100 9.9488523000
Si 4.0117394300 6.1751911000 10.3789843900
Si 4.3983682800 10.0150785200 5.7275856800
Si 7.7674252600 4.0100150200 8.9156556200
Si 4.3861882400 3.3231635600 7.3380680600
Si 3.2577013300 8.0730284800 5.0163741500
Si 9.9367923200 9.7387794100 7.9233209900
Si 4.8477090200 9.8998593000 0.0284997600
Si 1.7325883400 2.1663875300 2.4820862200
Si 6.1231531000 1.4685893300 7.7293790100
Si 2.4123675200 8.8415713100 8.3431393400
Si 10.5973846600 8.2038329000 6.2563913400
Si 5.8970911900 5.8817351700 0.9035404100
Si 3.0788861700 4.3446931700 9.1167899300
Si 8.4031882300 10.6464104000 4.6540944700
Si 3.8194891300 1.2157771700 8.2425885600
Si 2.2902506500 1.2794276900 4.5999500600
Si 6.6228183500 4.0071337200 6.8421790600
Si 1.7526810300 4.9456622700 7.0151006500
Si 6.1127302200 1.9171770100 3.2840914000
Si 4.3661064600 0.3630382100 3.7622888000
Si 6.5407995600 6.3114307000 6.2525496100
Si 7.5183020400 8.5102437600 0.9699619900
Si 8.1504306500 4.8852750500 3.4009804600
Si 0.4096977900 8.8194486100 9.6150472700
Si 7.6083208000 9.4986602600 8.2200074700
Si 7.0440773500 10.4660018000 10.2866082000
Si 8.9116174300 0.4154614800 0.5149448700
Si 2.3165970700 8.1705451700 2.8633453700
Si 7.4024716400 6.0649705000 9.9904346800
Si 0.0426841500 10.1537192000 0.5992228600
Si 6.4651982000 7.4764249800 8.3071012700
Si 4.5173528200 3.0035467500 10.9071679500
Si 6.6537923100 10.5202662600 6.3457116100
Si 4.4302808400 8.2155108900 9.3182953100
Si 0.4581014300 6.4540986500 10.0001263200
Si 0.1216344700 0.8440252200 7.6655211400
Si 10.2474814700 2.8377192700 8.7056918700
Si 8.8181280100 2.6326340900 10.6774935000
Si 1.4378663800 1.1485796100 0.4379978200
Si 10.4589840900 4.2366662900 6.6779341000
Si 10.3674701100 5.1204501600 4.3107833400
Si 0.6956983500 5.0933288400 0.9571784100
Si 1.8405169900 7.3097789500 6.6714839200
Si 0.2969811500 6.7751888600 2.7913456300
Si 5.5366559700 3.7929680800 1.9835341900
Si 10.5926479800 3.0168072700 3.1502201500
Si 2.8433509000 4.0320504100 1.6852979300
Si 9.2833923000 7.2351489400 10.6378319900
Si 2.3955817700 10.8245598000 7.0252943300
Si 5.9745915800 7.5335489100 2.6635207400
Si 7.6749181000 0.3547872100 2.5243671000
Si 7.5116554100 3.0702313600 4.8425139500
Si 7.6733137400 7.0306967700 4.2848843900
Si 9.7932403300 8.4405250600 1.8499467000
Si 2.9484091700 3.4247075200 5.4860913600
Si 9.4420929400 8.5822871500 4.2631873400
Si 1.1311608500 3.2585962800 10.1698064500
H 10.4121739000 1.2840661400 6.2350981100
H 0.4008257900 5.6902597600 8.6627888900
H 9.8326071700 7.0584183600 6.8859660700
H 0.7749930100 0.8942460400 4.8415426100
H 9.7241328100 5.4374148700 7.2861392000
H 6.8595869000 10.0002463800 2.1698145300
H 3.0197758900 6.6720841900 0.4702050600
H 3.0498549000 6.9623968900 2.2828400300
