&CONTROL
  dt = 30.D0,
  prefix='liquidOptimizeIteration',
  pseudo_dir = './',
  outdir = './'
  wf_collect = .true.,
  verbosity = 'high',
  tprnfor = .true.,
  tstress = .true.,
/

&SYSTEM
  ibrav = 0, nat = 72, ntyp = 2,
  ecutwfc	= 42.D0,
  degauss	= 0.05D0,
  occupations	= "smearing",
  smearing	= "marzari-vanderbilt",
/
&ELECTRONS
  electron_maxstep = 200,
  conv_thr = 1.D-8,
  mixing_beta = 0.3D0,
  scf_must_converge=.false.,
/
&IONS
/
ATOMIC_SPECIES
Si  28.08  Si.pbe-hgh.UPF
H  1.00784  H.pbe-hgh.UPF
CELL_PARAMETERS { angstrom }
   10.914011036500002  0.0  0.0
   0.0  10.914011036500002  0.0
   0.0  0.0  10.914011036500002
K_POINTS {automatic}
3 3 3  0 0 0
ATOMIC_POSITIONS (angstrom)
Si 10.2585482800 1.2665273200 5.0477410200
Si 4.1096708600 0.8337987900 10.3247526700
Si 4.8769149200 3.7098688000 3.7765425000
Si 9.7460918000 3.8266487200 1.5174622700
Si 3.0676556500 9.2764073400 2.8889823800
Si 4.7121897500 7.0568685700 5.3366785500
Si 7.0451687500 2.8568187900 9.3764669900
Si 4.3449878500 6.3794140800 10.5425963300
Si 4.4572275400 10.8617001800 6.0988257700
Si 7.6436494600 4.9561069800 8.3555376600
Si 3.7235549700 3.5447507300 7.4841193600
Si 2.4432650800 9.5455577600 5.4690655000
Si 9.9694361200 9.5242208700 7.3934021000
Si 5.3408040400 9.7689020800 10.6877854200
Si 1.7074642800 1.7760915900 2.6873787700
Si 7.1583252100 2.2932301700 6.9639794200
Si 2.3221850400 8.7495443700 8.0403082700
Si 0.1451050500 8.8988153000 5.3980916900
Si 5.8016154200 4.9303280900 1.9787102000
Si 3.6230587600 4.2343416000 9.7632049700
Si 9.5873475100 10.1689879000 3.9755813200
Si 3.8117074400 1.2425819800 7.9941420100
Si 1.6915516600 1.2632422100 5.3255462600
Si 5.5811851400 3.7926188400 6.0858926600
Si 2.5295294200 7.1633674900 6.2285497000
Si 6.9955209100 1.0368670600 3.5808651900
Si 3.4655914100 0.5643547800 3.9011805000
Si 6.6078552400 5.9108428400 6.3432450400
Si 6.6329356400 8.7402565400 1.5596012600
Si 8.0197026200 4.7713546000 2.7502543800
Si 0.2798854500 8.6106090100 9.1914526700
Si 7.6402661100 9.5475441100 7.4609052600
Si 7.3165892900 10.4251288300 9.6230254100
Si 9.0215215200 0.2327009000 0.1622062100
Si 3.5917246300 7.1583797800 1.8272237300
Si 6.7217429500 6.4562814500 9.9122030500
Si 0.2321792100 10.1618064800 0.0834020300
Si 6.3046749300 7.7045387300 7.9079213200
Si 5.2086353700 2.8571243800 0.0438433300
Si 6.7695244900 0.1935032300 5.8532714300
Si 4.3562838500 8.2789213000 9.1461158700
Si 10.4603046800 6.5526849100 10.0642134000
Si 10.4880371900 0.9589006400 7.4344496900
Si 10.6236001200 2.9114543300 8.9036392900
Si 9.0409812000 2.4937860400 10.5913601300
Si 1.9146777000 1.0772521800 0.3859925500
Si 9.9965356100 5.0540929700 8.1057159400
Si 10.8438776000 4.7334502400 5.8012880000
Si 0.6103213200 5.0872824800 0.6854566500
Si 0.7378679100 6.6068729800 4.6476115500
Si 1.8215593600 5.8280709800 2.6066369100
Si 5.0731597500 1.7575268500 2.4795432500
Si 10.7026503000 3.1333798300 3.5935145300
Si 2.5557994500 3.8295409300 3.5754955000
Si 8.3933110500 7.4467716100 0.3713143000
Si 1.8322005200 0.1486804800 7.4751917000
Si 5.7121641800 7.1696867000 3.0933035800
Si 8.0839534000 10.4566157500 2.1901800800
Si 8.3962141700 2.8125406400 4.1573323400
Si 7.7725657600 6.5611105300 4.3200165900
Si 10.4734997200 8.2631178100 1.4134954000
Si 1.9838288700 3.5895418300 5.8713450300
Si 9.7649839500 7.7491988600 3.6492960400
Si 1.5486436000 3.2668254400 10.3623732600
H 8.0640025900 3.1059529200 5.7015775900
H 5.1601335000 8.4734526300 5.9284471400
H 4.3902809900 5.6921478900 4.4644526100
H 6.8506155900 0.9288794700 9.1515292200
H 8.4021514000 10.0000935800 4.9722597200
H 8.2996579200 6.2530516600 1.4574352100
H 2.9473068500 10.0360334200 1.5697076400
H 1.5506517700 9.3399596200 2.6938071200
