&CONTROL
  dt = 30.D0,
  prefix='vacancyOptimizeIteration',
  pseudo_dir = './',
  outdir = './'
  wf_collect = .true.,
  verbosity = 'high',
  tprnfor = .true.,
  tstress = .true.,
/

&SYSTEM
  ibrav = 0, nat = 219, ntyp = 2,
  ecutwfc	= 42.D0,
  degauss	= 0.05D0,
  occupations	= "smearing",
  smearing	= "marzari-vanderbilt",
/
&ELECTRONS
  electron_maxstep = 200,
  conv_thr = 1.D-8,
  mixing_beta = 0.3D0,
  scf_must_converge=.false.,
/
&IONS
/
ATOMIC_SPECIES
Si  28.08  Si.pbe-hgh.UPF
H  1.00784  H.pbe-hgh.UPF
CELL_PARAMETERS { angstrom }
   16.022745900343466  0.0  0.0
   -0.4721541700305842  16.416461247975594  0.0
   0.9115048827149974  0.16469374961415556  17.004633481514855
K_POINTS {automatic}
2 2 2  0 0 0
ATOMIC_POSITIONS (angstrom)
Si 12.3984043800 15.1787319300 15.5776896600
Si 1.4483769000 1.4043401200 1.6155575100
Si 2.5548273300 2.7168491900 0.0041059900
Si 3.9406661900 4.0684649100 1.4312153800
Si 2.8862807300 0.0289186900 2.9059898300
Si 4.2253376900 1.3954706500 4.3060663300
Si 0.0765535700 2.8256452600 2.8843429400
Si 1.4621637600 4.1387302900 4.2960676100
Si 0.3200441000 0.0733983600 5.6724906600
Si 1.6841620700 1.4109132000 7.1098923300
Si 2.9136667500 2.8122991900 5.6811460200
Si 4.2798758300 4.1508309800 7.1116438100
Si 3.1412821100 0.0940293600 8.4967562300
Si 4.5067158500 1.4344225100 9.9308079800
Si 0.3875839500 2.8342833600 8.4951067800
Si 1.7533407700 4.1738666200 9.9307739700
Si 0.6097809400 0.1258485300 11.3095266600
Si 1.9602702600 1.4728007700 12.7433063400
Si 3.2127162400 2.8587477200 11.3193723400
Si 4.5690097600 4.1912232300 12.7737446300
Si 3.4220958000 0.1924229500 14.1501846900
Si 4.7896222500 1.4908860200 15.6203202800
Si 0.6889769100 2.9117269900 14.1283337400
Si 2.0341914200 4.2160753100 15.6126171800
Si 0.7635505000 5.6558538400 16.9963182200
Si 1.2196913200 6.8225529800 1.4342813200
Si 3.3628461600 8.3784050100 16.9992940300
Si 3.8235871200 9.5457484800 1.4376788400
Si 2.6774456300 5.5122373100 2.8289588400
Si 4.0473789500 6.8490758900 4.2693873400
Si -0.0716185300 8.2431931100 2.8284827100
Si 1.2946022800 9.5748860200 4.2766313100
Si 0.1556622100 5.5482171600 5.6743441600
Si 1.5258176900 6.8791833200 7.1067804800
Si 2.7552606500 8.2684049800 5.6655187600
Si 4.1191430100 9.6126834000 7.1028864200
Si 2.9839074600 5.5708343700 8.4994259500
Si 4.3473377200 6.9061676200 9.9420650500
Si 0.2300367800 8.2930968600 8.4946306500
Si 1.6022768800 9.6209903400 9.9267778800
Si 0.4603955900 5.5973254200 11.3210728100
Si 1.8241473700 6.9259922100 12.7720441700
Si 3.0548859600 8.3237043500 11.3378903900
Si 4.4078421700 9.6723227000 12.7826550600
Si 3.2759197300 5.6083681600 14.1714915000
Si 4.6468968400 6.9492573300 15.6063934800
Si 0.5365032600 8.3548405000 14.1611526800
Si 1.9053828900 9.6879412200 15.6021083200
Si 0.6084336500 11.1064961100 16.9979676700
Si 1.0746904600 12.2596505700 1.4476826700
Si 2.3336264500 13.6621219900 0.0625287600
Si 3.6753919200 15.0489383800 1.4662976400
Si 2.5332159000 10.9622205600 2.8388385400
Si 3.8913635800 12.3181752600 4.2732473900
Si -0.1424031900 13.6896243600 2.8818092500
Si 1.1679653700 15.0598845500 4.3219996700
Si 0.0064568800 10.9902786700 5.6799046800
Si 1.3671150500 12.3359934500 7.1147216400
Si 2.6122753100 13.7288496600 5.6927771900
Si 3.9708147900 15.0832336600 7.1175614200
Si 2.8286562400 11.0304440300 8.5031839800
Si 4.1824342500 12.3785186500 9.9477446000
Si 0.0731746300 13.7704515700 8.4931852500
Si 1.4345058700 15.1149660300 9.9294986200
Si 0.3003949400 11.0384752700 11.2986096800
Si 1.6382141900 12.3846106100 12.7429492400
Si 2.8835924200 13.8120033000 11.3375673000
Si 4.2571662100 15.1757177800 12.7629637000
Si 3.1169613600 11.1119991500 14.1727668400
Si 4.5103187300 12.4219132700 15.6350803000
Si 16.3114880900 13.7761628300 14.0949876500
Si 2.0063304300 14.8268143200 15.3067038200
Si 6.2563867000 0.1786931900 17.0001782700
Si 6.7113363100 1.3537930800 1.4327577000
Si 8.8534500200 2.9116890400 16.9974405200
Si 9.3077040900 4.0869783900 1.4341622900
Si 8.1740445300 0.0411636600 2.8242315600
Si 9.5401712600 1.3772593200 4.2673637900
Si 5.4186191500 2.7752567300 2.8260510500
Si 6.7897103400 4.1157490400 4.2640478800
Si 5.6741687500 0.0622679500 5.6793945400
Si 7.0300749800 1.4097502000 7.1081238500
Si 8.2478452900 2.8024794300 5.6571354800
Si 9.6092327500 4.1447860000 7.0977000100
Si 8.4803978900 0.0916896100 8.4943245600
Si 9.8313814800 1.4368302400 9.9336307500
Si 5.7350307000 2.8325480400 8.4973003700
Si 7.0943536400 4.1707322100 9.9410617700
Si 5.9724421400 0.1246595000 11.3096456900
Si 7.3194993600 1.4562340000 12.7720271700
Si 8.5473940700 2.8569636300 11.3368701100
Si 9.9129765300 4.1985554600 12.7731324700
Si 8.7797061300 0.1481299800 14.1676654500
Si 10.1487715600 1.4911040200 15.6041828800
Si 6.0215254800 2.8742404200 14.1682096000
Si 7.3914497100 4.2188997700 15.6025334300
Si 6.0932003200 5.6286000900 17.0028479900
Si 6.5546577100 6.8092353400 1.4321846500
Si 8.6988462300 8.3687945100 17.0002803000
Si 9.1508637600 9.5504863000 1.4319193700
Si 8.0202794700 5.5112882300 2.8275814700
Si 9.3855740900 6.8543274000 4.2658163600
Si 5.2800292800 8.2397554300 2.8311864500
Si 6.6439810200 9.5872703100 4.2671087200
Si 5.5038902400 5.5383321100 5.6622368700
Si 6.8661382900 6.8807834600 7.1024953100
Si 8.0966991700 8.2751564900 5.6625769600
Si 9.4605615700 9.6200294200 7.0969177900
Si 8.3193935200 5.5649553600 8.4958379800
Si 9.6818432500 6.9085395100 9.9327125000
Si 5.5729106100 8.3003565000 8.4983886700
Si 6.9320067400 9.6451947800 9.9376268400
Si 5.7989589300 5.5885932700 11.3347785400
Si 7.1622120300 6.9323196900 12.7693914500
Si 8.3874665800 8.3279008900 11.3270924500
Si 9.7503508500 9.6677441200 12.7658714900
Si 8.6169712800 5.6179520400 14.1643665600
Si 9.9871185900 6.9512165500 15.6035877200
Si 5.8691417500 8.3497313500 14.1658629600
Si 7.2488731100 9.6779875800 15.6015641700
Si 5.0630558100 10.9318079300 0.0004442500
Si 6.4140849400 12.2888683100 1.4371449000
Si 8.5409767800 13.8563659800 16.9977296000
Si 8.9940253700 15.0378520700 1.4284708300
Si 7.8749828300 10.9842055000 2.8290098600
Si 9.2419986200 12.3360529100 4.2563107700
Si 5.1280480100 13.7117069200 2.8379883000
Si 6.4877016100 15.0585667900 4.2740806200
Si 5.3493155100 11.0048803900 5.6620328100
Si 6.7109140500 12.3478982000 7.0997575700
Si 7.9422975900 13.7427643800 5.6599072300
Si 9.2973925200 15.0851571500 7.1008968800
Si 8.1639997100 11.0351183400 8.4942565400
Si 9.5265673200 12.3754020100 9.9327465100
Si 5.4202293100 13.7636162200 8.5027248500
Si 6.7856727400 15.1071188500 9.9311820800
Si 5.6381405100 11.0633710900 11.3384685500
Si 6.9959806500 12.4115931400 12.7779107700
Si 8.2322641600 13.7937709400 11.3297451700
Si 9.5898218200 15.1401412200 12.7644431000
Si 8.4570715200 11.0892376600 14.1600473800
Si 9.8212288800 12.4257720100 15.5995746300
Si 5.6980904100 13.8428459600 14.1729028800
Si 7.0808823300 15.1702198200 15.6090292000
Si 11.6104968700 0.1822275300 16.9945837400
Si 12.0577356400 1.3666909700 1.4240598300
Si 14.2017668300 2.9206757600 16.9981547200
Si 14.6639665800 4.0897019700 1.4306117200
Si 13.5368202000 0.1061239500 2.8299621200
Si 14.8917951000 1.4046002600 4.3035666500
Si 10.7666015800 2.7758178000 2.8297410600
Si 12.1331549200 4.1156795300 4.2670407000
Si 10.9916290200 0.0706312800 5.6682395000
Si 12.3508159700 1.4077129300 7.1082938900
Si 13.5786270900 2.8121723100 5.6816051400
Si 14.9510661300 4.1511210400 7.1110826500
Si 13.8125311000 0.0947730700 8.4924710600
Si 15.1748397700 1.4397872500 9.9257065900
Si 11.0605836800 2.8325739600 8.4965861800
Si 12.4250721200 4.1773084200 9.9284953500
Si 11.2828806200 0.1173238900 11.3144239900
Si 12.6395893900 1.4743486700 12.7378648600
Si 13.8849058000 2.8661661500 11.3141009100
Si 15.2460050600 4.2102619000 12.7529479700
Si 13.5946548400 16.5511270400 14.0991707900
Si 15.3714218300 1.5517694300 15.4677377000
Si 11.3754093000 2.8862835800 14.1641455000
Si 12.7449703800 4.2260648700 15.6016151800
Si 11.4485201000 5.6417732400 16.9951108900
Si 11.8998161700 6.8185838900 1.4312732000
Si 14.0341373300 8.3808958700 16.9937505200
Si 14.4896219300 9.5496864100 1.4340806600
Si 13.3610308000 5.5073437300 2.8237214200
Si 14.7228236100 6.8485967900 4.2673807900
Si 10.6161672100 8.2476579500 2.8250477800
Si 11.9859425400 9.5971995400 4.2532669400
Si 10.8396625700 5.5391643000 5.6583258000
Si 12.2017327900 6.8827328600 7.0952853500
Si 13.4307664900 8.2754791200 5.6535134900
Si 14.7928983800 9.6006744000 7.1070865600
Si 13.6558109600 5.5733646500 8.4945626300
Si 15.0223874000 6.9061072900 9.9341408900
Si 10.9114299900 8.3026705100 8.4915358000
Si 12.2748793500 9.6422533800 9.9305529100
Si 11.1355317200 5.5935675800 11.3280107000
Si 12.5006563100 6.9322988800 12.7655484000
Si 13.7293008700 8.3257955700 11.3249838700
Si 15.1004781500 9.6595640600 12.7586105100
Si 13.9636497200 5.6252250300 14.1593331800
Si 15.3284302200 6.9626510300 15.6010880400
Si 11.2047157700 8.3490017300 14.1583299100
Si 12.5707084500 9.6840516300 15.5954425000
Si 11.2765909000 11.1060309200 16.9838368100
Si 11.7386929400 12.3009654800 1.3979781300
Si 13.8680193700 13.8585900100 16.9375161900
Si 14.1395074700 14.7664911300 1.6949130400
Si 13.2131975400 11.0052802500 2.8116481300
Si 14.5955318100 12.3123692000 4.2822768500
Si 10.4739790900 13.7388256200 2.8124303400
Si 11.8302115100 15.0973186000 4.2563617900
Si 10.6899559500 11.0133141800 5.6514219200
Si 12.0543259800 12.3579493800 7.0849465300
Si 13.2889804900 13.7621261600 5.6453512600
Si 14.6407065700 15.0904086000 7.1057942100
Si 13.4995658600 11.0348010000 8.4835266200
Si 14.8658163200 12.3663652300 9.9217785200
Si 10.7520260000 13.7672212200 8.4850910500
Si 12.1062666500 15.1107713800 9.9218465400
Si 10.9802896100 11.0597908900 11.3247628100
Si 12.3438877100 12.4004706500 12.7617733700
Si 13.5604006100 13.7870234200 11.3025887700
Si 14.9098489100 15.1487510200 12.7228497700
Si 13.7974896600 11.0747928300 14.1500486500
Si 15.1564954900 12.4000668500 15.5964967900
Si 11.0426430500 13.8183849700 14.1525143300
H 16.3336645900 0.6866490900 16.3143133800
H 0.4734182500 0.5036722100 0.8470331000
H 13.2923544000 13.8649182600 2.5833779300
H 2.8688807800 13.9195679600 14.4313563100
