&CONTROL
  dt = 30.D0,
  prefix='vacancyOptimizeIteration',
  pseudo_dir = './',
  outdir = './'
  wf_collect = .true.,
  verbosity = 'high',
  tprnfor = .true.,
  tstress = .true.,
/

&SYSTEM
  ibrav = 0, nat = 219, ntyp = 2,
  ecutwfc	= 42.D0,
  degauss	= 0.05D0,
  occupations	= "smearing",
  smearing	= "marzari-vanderbilt",
/
&ELECTRONS
  electron_maxstep = 200,
  conv_thr = 1.D-8,
  mixing_beta = 0.3D0,
  scf_must_converge=.false.,
/
&IONS
/
ATOMIC_SPECIES
Si  28.08  Si.pbe-hgh.UPF
H  1.00784  H.pbe-hgh.UPF
CELL_PARAMETERS { angstrom }
   15.95902791024947  0.0  0.0
   0.25985091460329957  15.8611443313167  0.0
   0.47414397244615114  0.06443686455714223  16.48766759210994
K_POINTS {automatic}
2 2 2  0 0 0
ATOMIC_POSITIONS (angstrom)
Si 12.6151771100 14.5831300700 15.0723991800
Si 1.4597195600 1.2899181700 1.4114004000
Si 2.7187796400 2.6575687400 0.0249344600
Si 4.1048434100 3.9528451100 1.3824365200
Si 2.7979776200 0.0130723900 2.8088390500
Si 4.1632310600 1.3330317400 4.1483631200
Si 0.1292005800 2.6369424400 2.7342323600
Si 1.5191973200 3.9416470000 4.1015546300
Si 0.1738829300 0.0252710500 5.5170703500
Si 1.5584286500 1.3281673500 6.8728512600
Si 2.8702353400 2.6763332800 5.5162130000
Si 4.2580836600 3.9753506700 6.8731480400
Si 2.9069293400 0.0342078300 8.2585408000
Si 4.2959897600 1.3349984000 9.6122112800
Si 0.2892758600 2.6820593900 8.2557214000
Si 1.6776394300 3.9812840700 9.6129367400
Si 0.3185101600 0.0438368300 10.9925588100
Si 1.6958603300 1.3550534000 12.3496752200
Si 3.0276873300 2.6887213600 10.9993022700
Si 4.4120081900 3.9855649100 12.3641349000
Si 3.0638899000 0.1187583500 13.7528251900
Si 4.4596985300 1.3760507000 15.1273525800
Si 0.4515675800 2.6710830500 13.7832119600
Si 1.8304528200 3.9927908100 15.1261984400
Si 0.0960399400 5.2973677300 0.0119974200
Si 1.4830334900 6.5941290200 1.3720130100
Si 2.7994556900 7.9336469200 0.0115858200
Si 4.1928055900 9.2213411100 1.3770615400
Si 2.8335385500 5.3059150600 2.7631517200
Si 4.2251100400 6.5992559500 4.1246043900
Si 0.2147362600 7.9435343900 2.7606785700
Si 1.6067194300 9.2296869400 4.1294187900
Si 0.2549789400 5.2959737200 5.4954055600
Si 1.6387391600 6.5976034200 6.8592324500
Si 2.9614334000 7.9484379300 5.5169879200
Si 4.3459003600 9.2547981300 6.8736921300
Si 2.9933844000 5.3285593900 8.2609644800
Si 4.3792073100 6.6276576300 9.6223512000
Si 0.3750654800 7.9424892100 8.2562325200
Si 1.7648960100 9.2454901500 9.6056656800
Si 0.4084833800 5.3137016900 11.0177189900
Si 1.7966682400 6.6233442000 12.3660639600
Si 3.1115399300 7.9758266200 11.0152788200
Si 4.4841502000 9.2895281900 12.3795014100
Si 3.1446171400 5.3315146300 13.7573922800
Si 4.5333483300 6.6370594700 15.1124477300
Si 0.5345776700 7.9850841700 13.7492968300
Si 1.9234298400 9.2863077400 15.1066110900
Si 0.1796193500 10.5657554400 0.0113807800
Si 1.5745400300 11.8496556400 1.3841611300
Si 2.8944704600 13.2262666700 0.0830510200
Si 4.3009158600 14.5298505200 1.4030625900
Si 2.9280192500 10.5700421800 2.7722034500
Si 4.3133121200 11.8803992700 4.1248187300
Si 0.3744170000 13.2155488000 2.8032991900
Si 1.7301295000 14.5417413200 4.1533918600
Si 0.3501373900 10.5745368000 5.5334591000
Si 1.7334464800 11.8879171300 6.8804191000
Si 3.0602528600 13.2288857800 5.5299966900
Si 4.4410658000 14.5397254100 6.8802707100
Si 3.0848273100 10.6060414700 8.2699832400
Si 4.4595710200 11.9171044200 9.6327549100
Si 0.4624531900 13.2486870700 8.2548970200
Si 1.8485061300 14.5495973500 9.6132170300
Si 16.4461625800 10.5963100600 10.9788410700
Si 1.8526546400 11.9095386300 12.3437891200
Si 3.1927604700 13.2776364100 11.0234567000
Si 4.5848708800 14.5998719500 12.3716203000
Si 3.2238520700 10.6612240500 13.7655371800
Si 4.6225691500 11.9405876100 15.1504023400
Si 16.5079028000 13.2576539900 13.7067586500
Si 2.1021459200 14.4469096100 14.9859048800
Si 5.3303316100 0.0042832300 0.0159202600
Si 6.7197741200 1.3042464100 1.3722553800
Si 8.0327903100 2.6477786800 0.0118043800
Si 9.4177723000 3.9452950000 1.3742652300
Si 8.0712731400 0.0131237800 2.7588154700
Si 9.4526911400 1.3128708900 4.1220488000
Si 5.4614000200 2.6620074900 2.7637782600
Si 6.8458277800 3.9646253000 4.1206968100
Si 5.7607275400 15.8786588200 5.5204503300
Si 6.8791478800 1.3285096400 6.8699329400
Si 8.1922318200 2.6714013200 5.5083154000
Si 9.5796392000 3.9701864600 6.8667013600
Si 8.2255530900 0.0360095500 8.2538418100
Si 9.6065515600 1.3391994900 9.6088313100
Si 5.6089102800 2.6803442600 8.2551773100
Si 6.9934608700 3.9809602000 9.6152944700
Si 5.6546273300 0.0483350200 10.9936140200
Si 7.0349472800 1.3467768800 12.3593699700
Si 8.3469405900 2.6929998600 11.0023360000
Si 9.7286613200 3.9962127100 12.3613484900
Si 8.3813025400 0.0577006100 13.7518194500
Si 9.7690633300 1.3578105100 15.1095294100
Si 5.7707913900 2.7008020800 13.7495276600
Si 7.1573982000 4.0012234400 15.1085566400
Si 5.4164410300 5.2866572200 0.0109115100
Si 6.8036437900 6.5856981300 1.3698069600
Si 8.1164521700 7.9284871200 0.0103245300
Si 9.5034410600 9.2230801100 1.3715365200
Si 8.1607200400 5.3066199100 2.7608764300
Si 9.5495891300 6.6058156400 4.1188007300
Si 5.5451143600 7.9373810900 2.7649488800
Si 6.9325044100 9.2441106200 4.1187512700
Si 5.5769585400 5.3119461800 5.5117118600
Si 6.9627688600 6.6144862300 6.8690261200
Si 8.2809749500 7.9550830600 5.5086946200
Si 9.6665400700 9.2600055100 6.8627773000
Si 8.3117206600 5.3217024300 8.2556389700
Si 9.6961305800 6.6247177900 9.6128213200
Si 5.6971127200 7.9657909600 8.2607336600
Si 7.0781019600 9.2713802100 9.6190371700
Si 5.7271833700 5.3315644000 11.0063260100
Si 7.1094899200 6.6379079600 12.3628323800
Si 8.4284881400 7.9764897900 11.0023360000
Si 9.8128787000 9.2752677100 12.3629313000
Si 8.4644806300 5.3500102300 13.7496595600
Si 9.8560330800 6.6382482800 15.1122498700
Si 5.8408559400 7.9879071800 13.7532868500
Si 7.2374473200 9.2792766700 15.1094964300
Si 5.5121118600 10.5653592400 0.0236408400
Si 6.9006859100 11.8705388900 1.3745405700
Si 8.2052243800 13.2212468800 0.0120958800
Si 9.5951209400 14.5215605700 1.3679257200
Si 8.2542705900 10.5874693400 2.7630033400
Si 9.6476373600 11.8966089400 4.1084794500
Si 5.6421779100 13.2186366400 2.7735884200
Si 7.0234752400 14.5293209500 4.1247033100
Si 5.6643930400 10.5909757700 5.5108545000
Si 7.0487828500 11.8963148000 6.8660088800
Si 8.3717775800 13.2348680600 5.5063204000
Si 9.7463709800 14.5380473100 6.8689107100
Si 8.3979859400 10.6076826800 8.2556719400
Si 9.7830351900 11.9069158000 9.6150471600
Si 5.7848434500 13.2444549600 8.2637344100
Si 7.1731054000 14.5499325700 9.6097051500
Si 5.8077307700 10.6190936800 11.0131024400
Si 7.1834665200 11.9293145100 12.3714389400
Si 8.5099784400 13.2568744100 11.0032263300
Si 9.8938687900 14.5615171000 12.3547204400
Si 8.5404566900 10.6297929800 13.7467082700
Si 9.9290434100 11.9226187100 15.1062153900
Si 5.9196079800 13.2882452200 13.7663780600
Si 7.3269621200 14.5766918900 15.1133545500
Si 10.6487967300 0.0033426500 0.0072584600
Si 12.0342202200 1.3186328100 1.3532665400
Si 13.8267512800 2.7191445800 16.4867113100
Si 14.7440692000 3.9416788800 1.3580891800
Si 13.3956354900 0.0686740400 2.7537867300
Si 14.7915781000 1.3233628800 4.1289076700
Si 10.7702025100 2.6530808400 2.7605301800
Si 12.1598016600 3.9527011500 4.1175146900
Si 10.7986509300 0.0253271400 5.5165262600
Si 12.1909446600 1.3244675400 6.8681357900
Si 13.5100923800 2.6668404000 5.5101290500
Si 14.8954688000 3.9696512400 6.8677400800
Si 13.5440267900 0.0344584700 8.2519457300
Si 14.9286358000 1.3378568000 9.6086169700
Si 10.9295341100 2.6803300100 8.2555895000
Si 12.3160400900 3.9851372400 9.6086004800
Si 11.2080679700 15.8989793800 10.9877938800
Si 12.3202580800 1.3658407200 12.3290161700
Si 13.6684477500 2.6963197600 10.9954771300
Si 15.0560439900 3.9676125000 12.3850412700
Si 13.6497163200 0.0563244500 13.6965527800
Si 15.0289583600 1.3311476100 15.0704866100
Si 11.0786936200 2.7047145000 13.7481756700
Si 12.4723473400 4.0040802000 15.1008898700
Si 10.7340826600 5.2837449600 0.0124968400
Si 12.1240210000 6.5818738600 1.3693618000
Si 13.4348181700 7.9314284600 0.0121213200
Si 14.8186498700 9.2330205200 1.3744367000
Si 13.4778102400 5.2891809200 2.7548749100
Si 14.8611785300 6.5934316400 4.1156515800
Si 10.8678539000 7.9449154800 2.7569193900
Si 12.2599533500 9.2570179500 4.1015876000
Si 10.8960460700 5.3098256400 5.5048365000
Si 12.2797752300 6.6158759700 6.8593643500
Si 13.5966206100 7.9548766400 5.4964607700
Si 14.9799473600 9.2346471900 6.8758849900
Si 13.6305948700 5.3272624800 8.2497363800
Si 15.0209719100 6.6054692400 9.6226974400
Si 11.0124010400 7.9650362900 8.2502639900
Si 12.3989578900 9.2647840000 9.6073803900
Si 11.0472211900 5.3324721100 10.9991373900
Si 12.4350003600 6.6295558600 12.3564351600
Si 13.7481446700 7.9682833400 10.9926247600
Si 15.1373208800 9.2600399400 12.3504831100
Si 13.7914085200 5.3471480100 13.7478129400
Si 15.1763773700 6.6465659800 15.1098426700
Si 11.1648709500 7.9781702000 13.7456200800
Si 12.5508522900 9.2726750900 15.1045831100
Si 11.2803723900 10.6261666800 16.4876675900
Si 12.2045059300 11.8802368000 1.3316231800
Si 13.9770123900 13.2788873900 16.4206617100
Si 14.8171060000 14.3885587800 1.4800039400
Si 13.5728989400 10.6192103000 2.7474884400
Si 14.9816363200 11.8787717900 4.1385859300
Si 10.9669180500 13.2443821100 2.7459056200
Si 12.3393871500 14.5669796600 4.1095841200
Si 10.9865182400 10.5968709900 5.4973675900
Si 12.3715955400 11.9046796700 6.8472624000
Si 13.6922671000 13.2559947000 5.4899811200
Si 15.0728686800 14.5412753200 6.8669486800
Si 13.7108664400 10.6058484300 8.2408825000
Si 15.0994679400 11.8980186400 9.5990541200
Si 11.0983698100 13.2436575600 8.2463893800
Si 12.4784322400 14.5499076500 9.5992684600
Si 11.1314290200 10.6118106700 11.0002255800
Si 12.5183455200 11.9123918100 12.3554953600
Si 13.8234464700 13.2494846600 10.9792697500
Si 15.1894590100 14.5722396300 12.3264111200
Si 13.8652967300 10.6095007900 13.7371124500
Si 15.2555981400 11.8994571500 15.0929428200
Si 11.2373353400 13.2598439200 13.7354471900
H 15.6491349200 0.3634562900 16.0332180100
H 2.9486404000 13.5036652400 14.0854474000
H 0.7760287500 0.3380624800 0.4735274600
H 13.9508979000 13.4426412600 2.3671509200
