&CONTROL
  dt = 30.D0,
  prefix='vacancyOptimizeIteration',
  pseudo_dir = './',
  outdir = './'
  wf_collect = .true.,
  verbosity = 'high',
  tprnfor = .true.,
  tstress = .true.,
/

&SYSTEM
  ibrav = 0, nat = 219, ntyp = 2,
  ecutwfc	= 42.D0,
  degauss	= 0.05D0,
  occupations	= "smearing",
  smearing	= "marzari-vanderbilt",
/
&ELECTRONS
  electron_maxstep = 200,
  conv_thr = 1.D-8,
  mixing_beta = 0.3D0,
  scf_must_converge=.false.,
/
&IONS
/
ATOMIC_SPECIES
Si  28.08  Si.pbe-hgh.UPF
H  1.00784  H.pbe-hgh.UPF
CELL_PARAMETERS { angstrom }
   16.278385654502777  0.0  0.0
   0.6537056509865347  16.747472432528205  0.0
   -0.6198381700940185  -0.25806552079430134  16.086863963585067
K_POINTS {automatic}
2 2 2  0 0 0
ATOMIC_POSITIONS (angstrom)
Si 12.2236770500 15.1295464800 14.7066753800
Si 1.5507408600 1.4803258400 1.3586305700
Si 2.9106077500 2.8489166700 0.0091382200
Si 4.2436551800 4.2178754200 1.3472909400
Si 3.2975974100 16.6819446000 2.7307290700
Si 4.0000598300 1.3459272700 4.0270407400
Si 0.0091508200 2.7015953400 2.6447930400
Si 1.3739167800 4.1093802200 3.9794718900
Si 16.7226896600 16.6332997500 5.3914159400
Si 1.1667229000 1.2944432700 6.6903658500
Si 2.6106583200 2.6832366200 5.3760529800
Si 3.9825734400 4.0862206400 6.6905428100
Si 3.0584868400 16.5928756600 8.0595510200
Si 3.7775509600 1.2504001600 9.3694560900
Si -0.2002599000 2.6382338400 8.0613044900
Si 1.1710155100 4.0459876800 9.3707752100
Si 0.2403766600 16.5514119800 10.7361156200
Si 0.9437322000 1.2312033000 12.0400042000
Si 2.4102684900 2.6007045300 10.7379495200
Si 3.7831663900 4.0017402200 12.0507019700
Si 2.2505487900 -0.1497436800 13.3944055400
Si 3.6185276100 1.2038088300 14.7450908100
Si -0.4024639200 2.5323579600 13.4690003300
Si 0.9735488700 3.9686437400 14.7412460500
Si 0.2208183400 5.5629997000 0.0193040800
Si 1.5922223200 6.9639402200 1.3306812600
Si 3.0392193700 8.3472055200 0.0200036900
Si 4.4173334900 9.7403255200 1.3334353300
Si 2.8294918700 5.5214505400 2.7032848800
Si 4.2011383400 6.9192454000 4.0186594900
Si 0.2216273000 8.3000736500 2.7043466100
Si 1.5925378600 9.6960176900 4.0233890200
Si 0.0162218600 5.4554913300 5.3659021700
Si 1.3814420100 6.8624245900 6.6837219800
Si 2.8348260900 8.2566855500 5.3912550700
Si 4.2042204700 9.6682849600 6.6969453800
Si 2.6206144000 5.4306287400 8.0641196900
Si 3.9943773100 6.8351250800 9.3730756400
Si 0.0154957700 8.1928328500 8.0666292400
Si 1.3919385000 9.6076197900 9.3584044200
Si -0.1976518600 5.3694594900 10.7601333100
Si 1.1771371800 6.7919609000 12.0491576300
Si 2.6287712400 8.1787721100 10.7450277400
Si 3.9896898000 9.5942958600 12.0597749600
Si 2.4165121000 5.3487716200 13.4194367000
Si 3.7886395000 6.7518159800 14.7322535000
Si 16.0861380800 8.1300680700 13.4229758100
Si 1.1767276400 9.5337706900 14.7375621600
Si 16.7056906700 11.1296401600 0.0246272200
Si 1.8168856600 12.5085031500 1.3383643400
Si 3.2703623500 13.9251194300 0.0846841500
Si 4.6501147700 15.3503567900 1.3493162800
Si 3.0511790800 11.0748098400 2.7138539500
Si 4.4161482000 12.4982780000 4.0115169200
Si 0.5039781900 13.8379484700 2.7562428400
Si 1.8334984000 15.3104307000 4.0281668200
Si 0.2248444800 11.0127957700 5.4186831700
Si 1.5965934100 12.4496910100 6.6967845100
Si 3.0508329900 13.8381281500 5.3873459600
Si 4.4258512800 15.2463224300 6.6923284500
Si 2.8407808200 11.0130829200 8.0691870500
Si 4.2008195800 12.4279308700 9.3832586200
Si 0.2340487400 13.7985393400 8.0670957600
Si 1.6109325600 15.2060952300 9.3690700100
Si 16.2925114400 10.9357374500 10.7233265600
Si 1.3610746200 12.3565026000 12.0401972500
Si 2.8336666100 13.7711931600 10.7677102200
Si 4.2355048900 15.1966006400 12.0467928600
Si 2.6177682100 10.9371553200 13.4390626800
Si 4.0040623900 12.3271652700 14.7709745800
Si 16.2381663400 13.6853701700 13.3896920900
Si 1.6785982200 14.8672786000 14.4406147400
Si 6.0888560400 16.7265735600 0.0207567200
Si 6.8042698100 1.3831867700 1.3302581700
Si 8.2514214600 2.7691712000 0.0192040200
Si 9.6146257700 4.1728687300 1.3361958300
Si 8.6871951000 16.6780913400 2.7026253200
Si 9.3985186300 1.3337298600 4.0206864300
Si 5.4397552800 2.7257885200 2.7036870500
Si 6.8069476100 4.1308688400 4.0169542800
Si 5.8807224000 16.6308750900 5.3870081400
Si 6.5923690100 1.2943334100 6.6942910500
Si 8.0397577700 2.6834741100 5.3883916100
Si 9.4180889200 4.0817442600 6.6971062500
Si 8.4815655200 16.5972540700 8.0653583800
Si 9.2075047600 1.2491070100 9.3688447900
Si 5.2210341200 2.6379971100 8.0593579800
Si 6.5970043400 4.0412415100 9.3680565300
Si 5.6891504600 16.5561012800 10.7256752400
Si 6.4019134700 1.2106128900 12.0415324600
Si 7.8437239800 2.5978243000 10.7347965000
Si 9.2102215500 3.9998928700 12.0499780600
Si 8.2808331800 16.5089718300 13.4213510400
Si 8.9950317000 1.1665306700 14.7333956600
Si 5.0479442800 2.5674601200 13.4095271900
Si 6.4086592300 3.9667816800 14.7309987200
Si 5.6698023200 5.5799025100 0.0117086600
Si 7.0262498500 6.9703943700 1.3344600600
Si 8.4621385700 8.3452568100 0.0162022100
Si 9.8195979500 9.7331767900 1.3426788400
Si 8.2528175700 5.5173561000 2.7058748700
Si 9.6291401400 6.9149501000 4.0170668900
Si 5.6524581200 8.3006084600 2.7075479000
Si 7.0203355000 9.7104418400 4.0157960200
Si 5.4363462400 5.4704037900 5.3863324900
Si 6.8095238000 6.8768163300 6.6938084400
Si 8.2589157700 8.2607378800 5.3829381600
Si 9.6289383800 9.6662310600 6.6923928000
Si 8.0473449700 5.4278330000 8.0619640500
Si 9.4170332100 6.8325307700 9.3729791100
Si 5.4432943200 8.2213878300 8.0655514200
Si 6.8095774700 9.6285430600 9.3778856100
Si 5.2313757300 5.3853278500 10.7397673400
Si 6.6002243000 6.7911855800 12.0505089300
Si 8.0486861400 8.1771520400 10.7426629700
Si 9.4200924000 9.5785497600 12.0547719500
Si 7.8470032000 5.3485402800 13.4181980100
Si 9.2105534500 6.7472252800 14.7355030400
Si 5.2310381600 8.1362227600 13.4182784500
Si 6.6105713600 9.5304961700 14.7276687400
Si 5.8722601700 11.1178014900 0.0245150900
Si 7.2363308800 12.5350786700 1.3270504500
Si 8.6808040800 13.9294666400 0.0214465200
Si 10.0516184200 15.3329425800 1.3324154200
Si 8.4703915500 11.0967867900 2.7083683300
Si 9.8511128000 12.5051703300 4.0078169400
Si 5.8738800100 13.8786276600 2.7019818500
Si 7.2427683100 15.2878444400 4.0121282200
Si 5.6515369900 11.0516662200 5.3853029300
Si 7.0233750500 12.4545589300 6.6940014900
Si 8.4742223200 13.8375634900 5.3828738100
Si 9.8332166500 15.2381024000 6.7067583700
Si 8.2606199600 11.0079191600 8.0643127300
Si 9.6326332300 12.4094544900 9.3751508400
Si 5.6580555700 13.8001221400 8.0655192500
Si 7.0408530600 15.2038721000 9.3625387400
Si 5.4399897700 10.9759946600 10.7475694700
Si 6.8065582100 12.3824508600 12.0606758200
Si 8.2628392100 13.7553499200 10.7426629700
Si 9.6365089400 15.1566480600 12.0494954500
Si 8.0481938500 10.9249461700 13.4181980100
Si 9.4180479200 12.3160689600 14.7392030200
Si 5.4377044600 13.7275443900 13.4416365700
Si 6.8342167100 15.1245119900 14.7344574000
Si 11.4971262100 16.7214341700 0.0174946300
Si 12.1996687500 1.4047503200 1.3105582000
Si 13.6382318900 2.8066799600 0.0247716800
Si 15.0472959700 4.1793463800 1.3165859500
Si 13.4174317700 0.0043431800 2.7335442700
Si 14.8621016500 1.3476811200 4.0117743100
Si 10.8450063400 2.7234274800 2.7099287600
Si 12.2332200700 4.1225102600 4.0087017200
Si 11.2662296200 16.6383391200 5.4144845000
Si 12.0189879100 1.2902656000 6.6933419200
Si 13.4732432500 2.6761163300 5.3772595000
Si 14.8415988300 4.0831592900 6.6871967400
Si 13.9076850400 16.5913671400 8.0679805400
Si 14.6280694500 1.2529294500 9.3729791100
Si 10.6603776300 2.6365115600 8.0663557600
Si 12.0322045000 4.0394287000 9.3766630100
Si 11.0869302200 16.5420142200 10.7404429900
Si 11.7983868000 1.2135031300 12.0408246300
Si 13.2681926400 2.5929727300 10.7532642200
Si 14.6391785400 3.9807189700 12.0843074300
Si 13.6670112000 16.4981588200 13.3938425000
Si 14.3140919200 1.2098190800 14.6959454400
Si 10.4440159700 2.5510990100 13.4240697200
Si 11.8001498800 3.9745078200 14.7254326700
Si 11.0594951500 5.5602860700 0.0245570800
Si 12.4400762300 6.9575895000 1.3308952100
Si 13.8888607300 8.3416174400 0.0207004200
Si 15.2580778400 9.7445702600 1.3350472300
Si 13.6813804500 5.5127586600 2.7011935900
Si 15.0515199800 6.9153108900 4.0144125500
Si 11.0768593200 8.2992522000 2.7064861700
Si 12.4485207900 9.7120871000 4.0103264900
Si 10.8656873200 5.4637107900 5.3838712000
Si 12.2331671700 6.8705574200 6.6935188800
Si 13.6785269000 8.2553483100 5.3816994700
Si 15.0444997000 9.6403057000 6.7132896300
Si 13.4752177800 5.4231525100 8.0603714500
Si 14.8468228300 6.8128486900 9.3805238500
Si 10.8652115100 8.2165182900 8.0611275300
Si 12.2358549000 9.6204560000 9.3714991200
Si 10.6575303600 5.3821893900 10.7391399500
Si 12.0268649000 6.7846512800 12.0485945900
Si 13.4725168500 8.1633314900 10.7335095500
Si 14.8435081900 9.5608542000 12.0418381100
Si 13.2658802400 5.3456185400 13.4259840600
Si 14.6393052300 6.7469058200 14.7345378300
Si 10.6560189200 8.1231568700 13.4195010500
Si 12.0198426900 9.5190291000 14.7357121700
Si 11.2499641900 11.0991001900 0.0179008200
Si 12.6269748500 12.5112934100 1.2980587100
Si 13.4169669700 13.6056461500 16.0198460900
Si 15.1265246500 14.9973160000 1.6377071000
Si 13.8998152400 11.1032538700 2.6988127300
Si 15.2976390500 12.4733039300 4.0409719700
Si 11.3078606100 13.8938028700 2.6945497100
Si 12.6423051600 15.3295492900 4.0306924600
Si 11.0788849700 11.0520486800 5.3812973000
Si 12.4547672000 12.4607725400 6.6824993800
Si 13.9063850900 13.8532292300 5.3667869500
Si 15.2715850200 15.2448160300 6.6985379800
Si 13.6814762200 11.0081673500 8.0613688400
Si 15.0625498000 12.4037940000 9.3688769600
Si 11.0837643700 13.7928341800 8.0646505600
Si 12.4550973700 15.2004685700 9.3700834800
Si 10.8684492200 10.9608488600 10.7437729700
Si 12.2410735200 12.3653426400 12.0518441400
Si 13.6913110000 13.7475813200 10.7362604000
Si 15.0487997300 15.1732748600 12.0330064200
Si 13.4642309000 10.8934639800 13.4096558900
Si 14.8419919800 12.2800792800 14.7141075100
Si 10.8624188200 13.7000764900 13.4208845200
H 0.9401480200 0.5611192900 0.3220509700
H 14.9258694500 0.2370673000 15.6851106200
H 14.1960733500 14.1334396700 2.4911474100
H 2.5596937800 13.9910299000 13.5482764000
