&CONTROL
  dt = 30.D0,
  prefix='vacancyOptimizeIteration',
  pseudo_dir = './',
  outdir = './'
  wf_collect = .true.,
  verbosity = 'high',
  tprnfor = .true.,
  tstress = .true.,
/

&SYSTEM
  ibrav = 0, nat = 219, ntyp = 2,
  ecutwfc	= 42.D0,
  degauss	= 0.05D0,
  occupations	= "smearing",
  smearing	= "marzari-vanderbilt",
/
&ELECTRONS
  electron_maxstep = 200,
  conv_thr = 1.D-8,
  mixing_beta = 0.3D0,
  scf_must_converge=.false.,
/
&IONS
/
ATOMIC_SPECIES
Si  28.08  Si.pbe-hgh.UPF
H  1.00784  H.pbe-hgh.UPF
CELL_PARAMETERS { angstrom }
   16.31039687178962  0.0  0.0
   -0.534210079300384  16.139138444408136  0.0
   0.5094319393920416  0.8106834424095358  17.366663390766437
K_POINTS {automatic}
2 2 2  0 0 0
ATOMIC_POSITIONS (angstrom)
Si 12.1625534900 15.5217835400 15.9011080300
Si 1.4239400300 1.4625253900 1.6444250400
Si 2.6274035300 2.6738186500 0.0020566600
Si 3.9677425400 4.0718512300 1.4678911700
Si 2.8698880300 0.1421806200 2.9547988400
Si 4.1771231500 1.5503124000 4.3946862700
Si 0.0125917100 2.8748651700 2.9391167500
Si 1.3593032500 4.2346111100 4.3837626400
Si 0.1989156300 0.2844402800 5.7970096100
Si 1.5232502300 1.6685696000 7.2644579300
Si 2.8316358400 2.9739464700 5.8005003100
Si 4.1551409100 4.3615365900 7.2645968600
Si 3.0024915100 0.4067660600 8.6736237300
Si 4.3260950100 1.7920566500 10.1453095200
Si 0.1893481200 3.1032244200 8.6746831000
Si 1.5152875900 4.4888532400 10.1444759200
Si 0.3619687700 0.5440932500 11.5463998200
Si 1.6635022700 1.9448356800 13.0198570100
Si 2.9941979200 3.2316363300 11.5593553500
Si 4.3099358700 4.6129374100 13.0477652400
Si 3.1982585200 0.7308818000 14.4037543200
Si 4.4842681900 2.0788278000 15.9500820200
Si 0.3468041900 3.3529358100 14.4669516000
Si 1.6618098100 4.7399900700 15.9496478600
Si 0.3564571400 6.1878099200 17.3577021900
Si 1.1709846800 6.7652875800 1.4621810100
Si 2.9859030200 8.8766671700 17.3545067300
Si 3.8022499700 9.4532140000 1.4649753100
Si 2.6508836900 5.5150381000 2.8842207200
Si 3.9772025300 6.9055792800 4.3596750800
Si -0.1555803200 8.2046165200 2.8798790600
Si 1.1667474600 9.5912991400 4.3604913100
Si 0.0153808800 5.6589235800 5.7847140100
Si 1.3419324500 7.0397697600 7.2516239700
Si 2.6481553900 8.3405297100 5.7786530400
Si 3.9738694400 9.7288002700 7.2511029700
Si 2.8212847700 5.7938709800 8.6766281600
Si 4.1453049500 7.1766663400 10.1527945500
Si 0.0103749400 8.4644461900 8.6676322300
Si 1.3442315800 9.8411245500 10.1313467200
Si 0.1838139700 5.9124853600 11.5713036200
Si 1.5092112700 7.2985732400 13.0443613700
Si 2.8156777200 8.6046879200 11.5740822800
Si 4.1283336500 10.0042940700 13.0514990700
Si 2.9761976600 6.0402220500 14.4719358400
Si 4.3083939100 7.4340908200 15.9384637300
Si 0.1849011100 8.7391190700 14.4594318400
Si 1.5074513100 10.1302767000 15.9308050300
Si 0.1757267100 11.5664173000 17.3531521300
Si 0.9921377000 12.1410310500 1.4740702300
Si 2.3292618000 13.4407847200 0.0507643200
Si 3.6346047500 14.8693198400 1.4892764800
Si 2.4759338700 10.8910640500 2.8872946200
Si 3.7996493900 12.2856941800 4.3594145800
Si -0.2707579400 13.6019831100 2.9048349500
Si 1.0095617700 14.9846371800 4.4070166000
Si -0.1573500900 11.0254002400 5.7851308100
Si 1.1650967600 12.4104555100 7.2595779000
Si 2.4815412500 13.7101929800 5.8013512700
Si 3.8029295500 15.1097261300 7.2619918600
Si 2.6469966800 11.1598668500 8.6740058000
Si 3.9670802900 12.5510872700 10.1484528900
Si -0.1653470600 13.8516310500 8.6684311000
Si 1.1565254200 15.2428484500 10.1400474200
Si 0.0053808100 11.2661298200 11.5267407600
Si 1.3024452000 12.6543921200 12.9945190500
Si 2.6333213400 13.9923592900 11.5631760200
Si 3.9783039900 15.4038331100 13.0168525800
Si 2.7988951500 11.4614831100 14.4652670400
Si 4.1481071400 12.8167241700 15.9755589200
Si 16.2360461400 14.0593478800 14.3642277900
Si 1.6474359300 15.1410267900 15.5674249600
Si 5.9669760500 0.8181642900 17.3547324900
Si 6.7805523000 1.3940559300 1.4640375100
Si 8.5989139300 3.5045942200 17.3576327300
Si 9.4085635300 4.0853015200 1.4690651600
Si 8.2643552000 0.1401519000 2.8823451200
Si 9.5843508000 1.5253040600 4.3648677100
Si 5.4574356700 2.8304194800 2.8859052900
Si 6.7832155200 4.2217390900 4.3600571400
Si 5.1127759600 16.4111388000 5.7922858700
Si 6.9592913700 1.6652550500 7.2589353300
Si 8.2606877100 2.9653746900 5.7804070800
Si 9.5837584800 4.3553157000 7.2530306700
Si 8.4376339100 0.4093745600 8.6699593600
Si 9.7486808300 1.8007008200 10.1455526500
Si 5.6303000300 3.0998914300 8.6772707300
Si 6.9498259300 4.4865254000 10.1530376800
Si 5.2927652000 16.6770259100 11.5369349900
Si 7.1236432100 1.9234203300 13.0408706700
Si 8.4275227400 3.2339399200 11.5730923800
Si 9.7511155500 4.6244488100 13.0447434400
Si 8.0702066000 16.8148246400 14.4643466000
Si 9.9290218100 2.0680418400 15.9380121900
Si 5.7955734200 3.3600455700 14.4616026700
Si 7.1195425400 4.7548687700 15.9347472600
Si 5.7869128700 6.1825432600 17.3593172900
Si 6.6032001100 6.7681650300 1.4633185300
Si 8.4247880400 8.8783829400 17.3591088900
Si 9.2416435800 9.4628364000 1.4612466900
Si 8.0873491600 5.5254080600 2.8868257200
Si 9.4163276000 6.9147668000 4.3573479400
Si 5.2830275200 8.2061002300 2.8860789600
Si 6.6113700600 9.5973172500 4.3559586100
Si 5.4570856700 5.6559242000 5.7813101400
Si 6.7804458500 7.0436018200 7.2545415600
Si 8.0870425900 8.3446807800 5.7790698400
Si 9.4123983200 9.7358167400 7.2472128300
Si 8.2551881000 5.7869058800 8.6753951300
Si 9.5793418800 7.1775000300 10.1457610500
Si 5.4501073500 8.4757652700 8.6746657300
Si 6.7716175500 9.8663002500 10.1475671900
Si 5.6181156600 5.9174468600 11.5728318800
Si 6.9410077100 7.3101436000 13.0415653400
Si 8.2479723800 8.6089024300 11.5654857900
Si 9.5718876800 9.9955285700 13.0386651100
Si 8.4221821700 6.0602971300 14.4625578400
Si 9.7479433900 7.4438503600 15.9394015300
Si 5.6099197200 8.7391091300 14.4619847400
Si 6.9471127900 10.1191909600 15.9318817600
Si 5.6350377500 11.5527474700 17.3607587300
Si 6.4367012500 12.1461052600 1.4679866900
Si 8.2451194600 14.2598869700 17.3567991300
Si 9.0566232200 14.8452646200 1.4614481400
Si 7.9209360300 10.9014483700 2.8853669200
Si 9.2500897900 12.3004736100 4.3444618800
Si 5.1111883700 13.5850612900 2.8863394600
Si 6.4329399000 14.9752120400 4.3624190100
Si 5.2802158300 11.0282491100 5.7752839100
Si 6.6041673300 12.4161523000 7.2467786700
Si 7.9125130500 13.7195827300 5.7750060400
Si 9.2227434000 15.1091849000 7.2555835600
Si 8.0792362100 11.1636085400 8.6694557300
Si 9.4020291600 12.5492730500 10.1438159900
Si 5.2783558500 13.8468737700 8.6709319000
Si 6.6068099400 15.2341762600 10.1333612600
Si 5.4400951700 11.2964744600 11.5710604800
Si 6.7552670800 12.6922495800 13.0466190400
Si 8.0698791400 13.9811379500 11.5641138200
Si 9.3846219200 15.3769753300 13.0327083400
Si 8.2396093200 11.4302284300 14.4557327400
Si 9.5605665300 12.8154728000 15.9314649600
Si 5.4274572600 14.1359510500 14.4712064400
Si 6.7638033800 15.5158899000 15.9404608900
Si 11.4133783300 0.8192369300 17.3548887900
Si 12.2056863400 1.4124797900 1.4669637900
Si 14.0224677300 3.5151835000 17.3670107200
Si 14.8613113800 4.0830232200 1.4693534500
Si 13.6864158000 0.2191340500 2.9230178500
Si 15.0331425600 1.5583277900 4.4016503000
Si 10.8838369600 2.8340639200 2.8944844200
Si 12.2173562000 4.2196524300 4.3606476100
Si 11.0577732000 0.2774419500 5.7931194700
Si 12.3823922900 1.6651674700 7.2606893600
Si 13.6877550600 2.9748459800 5.7993714700
Si 15.0199683900 4.3619990900 7.2613666600
Si 13.8649160300 0.4088771500 8.6709319000
Si 15.1896577300 1.7998876400 10.1391269900
Si 11.0583337900 3.1012210300 8.6760203300
Si 12.3825101400 4.4935863500 10.1421487900
Si 10.6868967900 16.6773215400 11.5532943900
Si 12.5359665500 1.9429934500 13.0125803800
Si 13.8624802600 3.2369894300 11.5544058500
Si 15.1861085800 4.6104867600 13.0443613700
Si 13.4431763200 16.7923582100 14.3969118500
Si 15.2202218300 2.0977504300 15.8386401500
Si 11.2320875700 3.3671111900 14.4611858700
Si 12.5539721600 4.7571532300 15.9345909600
Si 11.2275114300 6.1890831400 17.3569727900
Si 12.0438469800 6.7675939200 1.4628392100
Si 13.8579355700 8.8764345800 17.3498698300
Si 14.6732725700 9.4555540300 1.4594405500
Si 13.5244077400 5.5165169300 2.8827098200
Si 14.8482812200 6.9062185800 4.3567748400
Si 10.7251268000 8.2130872900 2.8805216200
Si 12.0559061800 9.6100609500 4.3419958100
Si 10.8903280500 5.6565052800 5.7778541800
Si 12.2148761400 7.0472049600 7.2473691300
Si 13.5211950000 8.3455736500 5.7695008100
Si 14.8429353200 9.7232033900 7.2518671000
Si 13.6911258200 5.7955478200 8.6727901300
Si 15.0177945200 7.1702407400 10.1499811500
Si 10.8855606200 8.4773762200 8.6683790000
Si 12.2095254900 9.8619245400 10.1419924900
Si 11.0566589300 5.9226513900 11.5674655800
Si 12.3829074000 7.3044684400 13.0423815700
Si 13.6860500600 8.6036406200 11.5634017900
Si 15.0167602800 9.9886126700 13.0298428400
Si 13.8666187100 6.0495088900 14.4624015400
Si 15.1888968800 7.4394863700 15.9358066300
Si 11.0515116100 8.7396199700 14.4584072100
Si 12.3765512900 10.1271062000 15.9271927600
Si 11.0493029700 11.5664888300 17.3405092000
Si 11.8816594300 12.1693824300 1.4214093000
Si 13.6815521600 14.2764729000 17.2878882100
Si 14.2613812500 14.6286396900 1.7171774700
Si 13.3636259300 10.9234669700 2.8664546300
Si 14.7026802100 12.2970873000 4.3580078800
Si 10.5641104700 13.6091605200 2.8687817600
Si 11.8609114800 15.0127222800 4.3683584100
Si 10.7190345400 11.0359094300 5.7672084100
Si 12.0404693000 12.4254008200 7.2391894300
Si 13.3544045600 13.7381769200 5.7688235100
Si 14.6673460100 15.1163878300 7.2594910600
Si 13.5099009000 11.1610257400 8.6594178000
Si 14.8348536400 12.5417331600 10.1302699900
Si 10.7033708700 13.8505122800 8.6631342700
Si 12.0174657100 15.2411047400 10.1331181200
Si 10.8788785500 11.2924173200 11.5609009900
Si 12.2009386700 12.6838585900 13.0303985800
Si 13.4940919200 13.9756219800 11.5358408900
Si 14.7983752100 15.3889888600 12.9892743200
Si 13.6806475100 11.4218052400 14.4436629100
Si 14.9974790400 12.8020329900 15.9166859300
Si 10.8573145500 14.1120412600 14.4464936700
H 0.4640354700 0.5514368100 0.8603219300
H 2.5187296200 14.2098103700 14.7427515900
H 13.4032074700 13.7308678100 2.5849757500
H 16.1149449300 1.2324665500 16.7482017700
