&CONTROL
  dt = 30.D0,
  prefix='vacancyOptimizeIteration',
  pseudo_dir = './',
  outdir = './'
  wf_collect = .true.,
  verbosity = 'high',
  tprnfor = .true.,
  tstress = .true.,
/

&SYSTEM
  ibrav = 0, nat = 220, ntyp = 2,
  ecutwfc	= 42.D0,
  degauss	= 0.05D0,
  occupations	= "smearing",
  smearing	= "marzari-vanderbilt",
/
&ELECTRONS
  electron_maxstep = 200,
  conv_thr = 1.D-8,
  mixing_beta = 0.3D0,
  scf_must_converge=.false.,
/
&IONS
/
ATOMIC_SPECIES
Si  28.08  Si.pbe-hgh.UPF
H  1.00784  H.pbe-hgh.UPF
CELL_PARAMETERS { angstrom }
   16.338598986088137  0.0  0.0
   -0.10598174978045681  16.416900929917603  0.0
   -0.5245969303830998  0.32175572270887176  16.515473578675454
K_POINTS {automatic}
2 2 2  0 0 0
ATOMIC_POSITIONS (angstrom)
Si 11.6449560800 15.3634856400 15.1119556000
Si 1.4292843300 1.4792136600 1.4518306900
Si 2.2371935800 3.0785355300 16.5098087700
Si 4.0355387900 4.1541586900 1.3883683300
Si 2.5836685000 16.4513021200 2.7938400900
Si 3.9611351500 1.4657532800 4.1533278100
Si -0.0857113800 2.7718432700 2.7402143500
Si 1.2062068800 4.1840580500 4.1264075900
Si 16.0475954000 16.4847292100 5.5166140900
Si 1.1197108900 1.4961872400 6.8843430400
Si 2.5351007400 2.8174867100 5.5094463800
Si 3.8298676100 4.2395610400 6.8868533900
Si 2.3654232100 16.5531193600 8.2526169900
Si 3.7678899000 1.5545899800 9.6327655700
Si -0.2696884200 2.8743475900 8.2570101100
Si 1.0264187300 4.2940736500 9.6352263800
Si -0.4407004200 16.6076285000 10.9932277100
Si 0.9389224300 1.6271050600 12.3720220200
Si 2.3698271200 2.9298655000 11.0047389900
Si 3.6607429100 4.3452847900 12.3910973900
Si 2.3641859700 0.3251793400 13.7053162000
Si 3.6226524600 1.6945907100 15.1547967400
Si -0.4391759700 2.9591224400 13.7949126500
Si 0.8522533100 4.4006397200 15.1498421000
Si -0.0190722000 5.4441902100 0.0000565700
Si 1.2751474300 6.8620047400 1.3787480700
Si 2.6855251200 8.1804518200 0.0004408800
Si 3.9878973100 9.5929327700 1.3800726100
Si 2.6182591300 5.5037487400 2.7537900600
Si 3.9127980400 6.9208953800 4.1352764000
Si -0.1228850600 8.2314613000 2.7476463100
Si 1.1754314300 9.6409409000 4.1333275700
Si -0.1935951300 5.5531164400 5.5001481700
Si 1.0978274300 6.9704311200 6.8809904000
Si 2.5161947900 8.2846881400 5.5083893900
Si 3.8058310400 9.7117236000 6.8842769800
Si 2.4368056100 5.6114769500 8.2589589300
Si 3.7331443900 7.0278497500 9.6394873700
Si -0.3026385000 8.3295701500 8.2562338800
Si 1.0015195600 9.7451042100 9.6215185400
Si -0.3743954200 5.6480377200 11.0212379500
Si 0.9220839400 7.0776439600 12.3875135400
Si 2.3369131400 8.3953704300 11.0135087100
Si 3.6213581300 9.8249836000 12.3969934200
Si 2.2628004100 5.7154154400 13.7634176400
Si 3.5592393600 7.1346711900 15.1427734800
Si -0.4747485800 8.4468877700 13.7606595500
Si 0.8214547100 9.8662977200 15.1386611200
Si -0.5764537800 11.2399454900 16.5069681100
Si 1.2543975600 12.3141199000 1.3785779600
Si 2.6891990600 13.6402853100 0.0576948300
Si 3.9644180100 15.0988708800 1.4030836200
Si 2.5912850800 10.9602878200 2.7573904400
Si 3.8737356000 12.3950167100 4.1321219400
Si -0.0705674500 13.7139093600 2.7648884600
Si 1.1587363800 15.1554356000 4.1632536100
Si -0.2078137700 10.9955676700 5.5289181200
Si 1.0675421900 12.4410596900 6.8932118500
Si 2.4816980800 13.7593398500 5.5172912300
Si 3.7741205900 15.1834846600 6.8914281800
Si 2.4123508400 11.0798993100 8.2615848900
Si 3.6947826300 12.5056329300 9.6464899300
Si 15.9858360000 13.8126091800 8.2406102400
Si 0.9500481000 15.2310840000 9.6203294200
Si -0.4025406300 11.1000712000 10.9848543600
Si 0.8620349400 12.5341436600 12.3671829900
Si 2.2884530800 13.8805505800 11.0159364900
Si 3.6173248400 15.3211662900 12.3625091100
Si 2.2252175800 11.2046012500 13.7734260200
Si 3.5442889800 12.5955781700 15.1801314800
Si 15.7615439300 13.8873111600 13.7013524900
Si 1.1145168600 15.0380776700 14.8039420200
Si 5.3605545500 16.3992294900 0.0004905900
Si 6.7536718000 1.4032128500 1.3812782400
Si 8.1648630400 2.7198697700 0.0025132800
Si 9.4479563900 4.1448262500 1.3862906900
Si 7.9834472800 16.4498384700 2.7532615700
Si 9.3671833200 1.4591415200 4.1418330400
Si 5.3595360500 2.7723716900 2.7563829900
Si 6.6473426700 4.1966809500 4.1364324800
Si 5.1872539300 16.5005509400 5.5147148100
Si 6.5763809600 1.5095718400 6.8920062200
Si 7.9801967600 2.8313019900 5.5124191600
Si 9.2831956700 4.2440399300 6.8892316200
Si 7.8139958700 16.5629906900 8.2596030400
Si 9.2107365300 1.5631326100 9.6387111400
Si 5.1737339500 2.8770779400 8.2581166500
Si 6.4701329700 4.2929469700 9.6389093300
Si 5.0342037500 16.6115522600 10.9797510800
Si 6.4119991000 1.6104875900 12.3826249500
Si 7.8178678900 2.9338483100 11.0111470000
Si 9.1083710400 4.3519471300 12.3934756200
Si 7.6412607400 16.6646652500 13.7641443200
Si 9.0359734900 1.6706372200 15.1447057900
Si 5.0212142400 2.9893562900 13.7541524600
Si 6.3075410500 4.4087314100 15.1396355400
Si 4.9136612700 5.7810049400 16.5132439900
Si 6.7241873500 6.8766581200 1.3817637900
Si 8.1394447200 8.1869483800 0.0069492500
Si 9.4266558400 9.6033435600 1.3945253000
Si 8.0594755300 5.5150477000 2.7590585000
Si 9.3605450100 6.9297788400 4.1370600700
Si 5.3265533600 8.2374440400 2.7581171200
Si 6.6192268400 9.6623221300 4.1345001700
Si 5.2452622700 5.5548182300 5.5108171600
Si 6.5390832000 6.9736184900 6.8903877000
Si 7.9488257200 8.2862065500 5.5071177000
Si 9.2341015000 9.7018293000 6.8904372500
Si 7.8829195600 5.6099073400 8.2618161100
Si 9.1760686400 7.0279012300 9.6421298500
Si 5.1426969600 8.3460649000 8.2610729200
Si 6.4315903000 9.7657651700 9.6438639700
Si 5.0732874400 5.6616699500 11.0114442800
Si 6.3660115700 7.0831004700 12.3895119100
Si 7.7776009100 8.3998310100 11.0115764000
Si 9.0734022400 9.8153688100 12.3922204500
Si 7.7142327600 5.7257448900 13.7635827900
Si 9.0048506300 7.1403742500 15.1481575200
Si 4.9673390600 8.4510821200 13.7610724400
Si 6.2769486100 9.8584469100 15.1376371600
Si 5.4201250500 10.8928792900 0.0085733100
Si 6.6951748600 12.3320074700 1.3849678000
Si 7.5666967600 13.9759043900 16.5120383600
Si 9.3738879600 15.0793564300 1.3738594900
Si 8.0441133800 10.9838768800 2.7690833900
Si 9.3427628900 12.4146640800 4.1454169000
Si 5.2955109500 13.7046625400 2.7554085800
Si 6.5805580600 15.1311629500 4.1375390200
Si 5.2160378200 11.0279687400 5.5041779400
Si 6.5069941000 12.4457495200 6.8861927700
Si 7.9192387100 13.7669541300 5.5103877600
Si 9.1997028500 15.1836278300 6.9004621400
Si 7.8414040100 11.0769861100 8.2612050400
Si 9.1276350800 12.4916298900 9.6532612800
Si 5.1107221800 13.8134549600 8.2604288100
Si 6.4165827100 15.2311972600 9.6253005800
Si 5.0343829900 11.1372403900 11.0169439300
Si 6.3195724500 12.5592506000 12.4011718300
Si 7.7341725300 13.8665112100 11.0183147100
Si 9.0292483900 15.2880019800 12.3902055600
Si 7.6734263400 11.1875622400 13.7591896800
Si 8.9636141600 12.5985003400 15.1472656900
Si 4.9181330400 13.9362493200 13.7721047800
Si 6.2307698200 15.3475790200 15.1415183000
Si 10.2664596200 16.7190690400 16.5145156800
Si 12.1604915400 1.4298133300 1.3721864700
Si 13.5761569900 2.7469944800 0.0119869500
Si 14.9061578200 4.1374710400 1.3769990800
Si 13.4944551000 0.1308381600 2.7971597000
Si 14.8567848800 1.4829694800 4.1546655600
Si 10.7788929500 2.7806103100 2.7663583400
Si 12.0945026200 4.1888172500 4.1364324800
Si 10.6950969100 0.1146066800 5.5437159900
Si 12.0207063700 1.5197973600 6.9025100600
Si 13.4363681500 2.8332571600 5.5183977600
Si 14.7303158900 4.2520967400 6.8924025900
Si 13.2526028100 16.5446888100 8.2521710700
Si 14.6552692800 1.5537963300 9.6296111200
Si 10.6243342800 2.8853014200 8.2690003400
Si 11.9215996100 4.3028550200 9.6427244000
Si 10.4360844000 16.6092185300 11.0108001700
Si 11.8280927400 1.6280970000 12.3719559600
Si 13.2626135900 2.9268077600 11.0062088700
Si 14.5589682700 4.3242980500 12.4076459000
Si 13.0407917300 16.6595146200 13.7171743100
Si 14.3569110600 1.7158443800 15.0896762300
Si 10.4482532800 2.9860850200 13.7674143800
Si 11.7295102700 4.4179818300 15.1417164900
Si 10.8647615400 5.4582714200 0.0099383200
Si 12.1654883600 6.8745884100 1.3876020100
Si 13.0527238100 8.4955836600 16.5070837200
Si 14.8771229900 9.5893110900 1.3635505300
Si 13.5077402600 5.5036637400 2.7553260000
Si 14.8018034700 6.9233186600 4.1332615100
Si 10.7804320800 8.2533664200 2.7681255000
Si 12.0759682200 9.6916609900 4.1421798700
Si 10.6961437000 5.5583968100 5.5091160700
Si 11.9880553400 6.9803114700 6.8859120100
Si 13.3996014900 8.2911976600 5.5012381900
Si 14.6904119800 9.6980804400 6.8926668400
Si 13.3303586900 5.6181994900 8.2610564000
Si 14.6278843100 7.0211029800 9.6471010000
Si 10.5839145400 8.3418309800 8.2586286200
Si 11.8776730800 9.7529271300 9.6463908400
Si 10.5204360600 5.6651081300 11.0151767700
Si 11.8164045700 7.0751430300 12.3973402400
Si 13.2224017600 8.3860681600 11.0129802200
Si 14.5206970300 9.8050909600 12.3812211400
Si 13.1618312100 5.7071786400 13.7653334300
Si 14.4547652600 7.1279518700 15.1399988800
Si 10.4148456300 8.4474398000 13.7637149200
Si 11.7048606100 9.8634005800 15.1433184900
Si 10.8281071700 10.9072328300 0.0029395200
Si 12.1438461500 12.3540918000 1.3455470100
Si 13.0108530200 13.9869958300 16.4316575500
Si 14.5514493500 14.8434104700 1.6619355900
Si 13.5058214100 10.9838659500 2.7306023400
Si 14.8601572100 12.3639564500 4.1093966500
Si 10.7461429700 13.7411944400 2.7429889400
Si 11.9738966300 15.2175760000 4.1431542800
Si 10.6602501900 11.0358907200 5.5383484600
Si 11.9190584100 12.4293032100 6.9731632500
Si 13.2405273800 13.6262946100 5.3814844900
Si 14.6174629000 15.1522712000 6.8667375400
Si 13.3025332400 11.0630643900 8.2831045600
Si 14.5970660200 12.4927119100 9.6405443600
Si 10.5294063100 13.8307194400 8.2955076800
Si 11.8421176100 15.2448333900 9.6485708800
Si 10.4840733900 11.1304724700 11.0142023600
Si 11.7785524200 12.5531896500 12.3892146300
Si 13.1877004400 13.8646385400 11.0022451600
Si 14.4616858000 15.3127164200 12.3619145500
Si 13.1138728600 11.1707588100 13.7511466400
Si 14.4096933500 12.5808829400 15.1260928500
Si 10.3660316100 13.9130581600 13.7580831400
H 2.0124619300 14.1492851500 13.9403148800
H 13.6684363200 13.9495840100 2.4999637500
H 0.7573416700 0.5143419000 0.4821098000
H 15.0591549100 0.7385191700 16.0169044600
H 12.3706952000 12.6094737300 4.5199052600
